<?xml version="1.0" ?> 
<!-- 
# vtk DataFile Version 3.0
-->
<VTKFile type="UnstructuredGrid" version="0.1" compressor="vtkZLibDataCompressor" byte_order="LittleEndian">
  <UnstructuredGrid>
    <FieldData>
      <DataArray type="Float64" Name="TIME" NumberOfTuples="1" format="ascii">
9.500000000000000e+00 
      </DataArray>
    </FieldData>

    <Piece NumberOfPoints="160" NumberOfCells="20" >
      <Points>
        <DataArray type="Float64" NumberOfComponents="3" format="ascii">
-1.000000000000000e+00 -1.000000000000000e+00 5.000000000000000e+00
-1.000000000000000e+00 -1.000000000000000e+00 4.000000000000000e+00
-1.000000000000000e+00 0.000000000000000e+00 4.000000000000000e+00
-1.000000000000000e+00 0.000000000000000e+00 5.000000000000000e+00
0.000000000000000e+00 -1.000000000000000e+00 5.000000000000000e+00
0.000000000000000e+00 -1.000000000000000e+00 4.000000000000000e+00
0.000000000000000e+00 0.000000000000000e+00 4.000000000000000e+00
0.000000000000000e+00 0.000000000000000e+00 5.000000000000000e+00
-1.000000000000000e+00 -1.000000000000000e+00 4.000000000000000e+00
-1.000000000000000e+00 -1.000000000000000e+00 3.000000000000000e+00
-1.000000000000000e+00 0.000000000000000e+00 3.000000000000000e+00
-1.000000000000000e+00 0.000000000000000e+00 4.000000000000000e+00
0.000000000000000e+00 -1.000000000000000e+00 4.000000000000000e+00
0.000000000000000e+00 -1.000000000000000e+00 3.000000000000000e+00
0.000000000000000e+00 0.000000000000000e+00 3.000000000000000e+00
0.000000000000000e+00 0.000000000000000e+00 4.000000000000000e+00
-1.000000000000000e+00 -1.000000000000000e+00 3.000000000000000e+00
-1.000000000000000e+00 -1.000000000000000e+00 2.000000000000000e+00
-1.000000000000000e+00 0.000000000000000e+00 2.000000000000000e+00
-1.000000000000000e+00 0.000000000000000e+00 3.000000000000000e+00
0.000000000000000e+00 -1.000000000000000e+00 3.000000000000000e+00
0.000000000000000e+00 -1.000000000000000e+00 2.000000000000000e+00
0.000000000000000e+00 0.000000000000000e+00 2.000000000000000e+00
0.000000000000000e+00 0.000000000000000e+00 3.000000000000000e+00
-1.000000000000000e+00 -1.000000000000000e+00 2.000000000000000e+00
-1.000000000000000e+00 -1.000000000000000e+00 1.000000000000000e+00
-1.000000000000000e+00 0.000000000000000e+00 1.000000000000000e+00
-1.000000000000000e+00 0.000000000000000e+00 2.000000000000000e+00
0.000000000000000e+00 -1.000000000000000e+00 2.000000000000000e+00
0.000000000000000e+00 -1.000000000000000e+00 1.000000000000000e+00
0.000000000000000e+00 0.000000000000000e+00 1.000000000000000e+00
0.000000000000000e+00 0.000000000000000e+00 2.000000000000000e+00
-1.000000000000000e+00 -1.000000000000000e+00 1.000000000000000e+00
-1.000000000000000e+00 -1.000000000000000e+00 0.000000000000000e+00
-1.000000000000000e+00 0.000000000000000e+00 0.000000000000000e+00
-1.000000000000000e+00 0.000000000000000e+00 1.000000000000000e+00
0.000000000000000e+00 -1.000000000000000e+00 1.000000000000000e+00
0.000000000000000e+00 -1.000000000000000e+00 0.000000000000000e+00
0.000000000000000e+00 0.000000000000000e+00 0.000000000000000e+00
0.000000000000000e+00 0.000000000000000e+00 1.000000000000000e+00
-1.000000000000000e+00 0.000000000000000e+00 5.000000000000000e+00
-1.000000000000000e+00 0.000000000000000e+00 4.000000000000000e+00
-1.000000000000000e+00 1.000000000000000e+00 4.000000000000000e+00
-1.000000000000000e+00 1.000000000000000e+00 5.000000000000000e+00
0.000000000000000e+00 0.000000000000000e+00 5.000000000000000e+00
0.000000000000000e+00 0.000000000000000e+00 4.000000000000000e+00
0.000000000000000e+00 1.000000000000000e+00 4.000000000000000e+00
0.000000000000000e+00 1.000000000000000e+00 5.000000000000000e+00
-1.000000000000000e+00 0.000000000000000e+00 4.000000000000000e+00
-1.000000000000000e+00 0.000000000000000e+00 3.000000000000000e+00
-1.000000000000000e+00 1.000000000000000e+00 3.000000000000000e+00
-1.000000000000000e+00 1.000000000000000e+00 4.000000000000000e+00
0.000000000000000e+00 0.000000000000000e+00 4.000000000000000e+00
0.000000000000000e+00 0.000000000000000e+00 3.000000000000000e+00
0.000000000000000e+00 1.000000000000000e+00 3.000000000000000e+00
0.000000000000000e+00 1.000000000000000e+00 4.000000000000000e+00
-1.000000000000000e+00 0.000000000000000e+00 3.000000000000000e+00
-1.000000000000000e+00 0.000000000000000e+00 2.000000000000000e+00
-1.000000000000000e+00 1.000000000000000e+00 2.000000000000000e+00
-1.000000000000000e+00 1.000000000000000e+00 3.000000000000000e+00
0.000000000000000e+00 0.000000000000000e+00 3.000000000000000e+00
0.000000000000000e+00 0.000000000000000e+00 2.000000000000000e+00
0.000000000000000e+00 1.000000000000000e+00 2.000000000000000e+00
0.000000000000000e+00 1.000000000000000e+00 3.000000000000000e+00
-1.000000000000000e+00 0.000000000000000e+00 2.000000000000000e+00
-1.000000000000000e+00 0.000000000000000e+00 1.000000000000000e+00
-1.000000000000000e+00 1.000000000000000e+00 1.000000000000000e+00
-1.000000000000000e+00 1.000000000000000e+00 2.000000000000000e+00
0.000000000000000e+00 0.000000000000000e+00 2.000000000000000e+00
0.000000000000000e+00 0.000000000000000e+00 1.000000000000000e+00
0.000000000000000e+00 1.000000000000000e+00 1.000000000000000e+00
0.000000000000000e+00 1.000000000000000e+00 2.000000000000000e+00
-1.000000000000000e+00 0.000000000000000e+00 1.000000000000000e+00
-1.000000000000000e+00 0.000000000000000e+00 0.000000000000000e+00
-1.000000000000000e+00 1.000000000000000e+00 0.000000000000000e+00
-1.000000000000000e+00 1.000000000000000e+00 1.000000000000000e+00
0.000000000000000e+00 0.000000000000000e+00 1.000000000000000e+00
0.000000000000000e+00 0.000000000000000e+00 0.000000000000000e+00
0.000000000000000e+00 1.000000000000000e+00 0.000000000000000e+00
0.000000000000000e+00 1.000000000000000e+00 1.000000000000000e+00
0.000000000000000e+00 -1.000000000000000e+00 5.000000000000000e+00
0.000000000000000e+00 -1.000000000000000e+00 4.000000000000000e+00
0.000000000000000e+00 0.000000000000000e+00 4.000000000000000e+00
0.000000000000000e+00 0.000000000000000e+00 5.000000000000000e+00
1.000000000000000e+00 -1.000000000000000e+00 5.000000000000000e+00
1.000000000000000e+00 -1.000000000000000e+00 4.000000000000000e+00
1.000000000000000e+00 0.000000000000000e+00 4.000000000000000e+00
1.000000000000000e+00 0.000000000000000e+00 5.000000000000000e+00
0.000000000000000e+00 -1.000000000000000e+00 4.000000000000000e+00
0.000000000000000e+00 -1.000000000000000e+00 3.000000000000000e+00
0.000000000000000e+00 0.000000000000000e+00 3.000000000000000e+00
0.000000000000000e+00 0.000000000000000e+00 4.000000000000000e+00
1.000000000000000e+00 -1.000000000000000e+00 4.000000000000000e+00
1.000000000000000e+00 -1.000000000000000e+00 3.000000000000000e+00
1.000000000000000e+00 0.000000000000000e+00 3.000000000000000e+00
1.000000000000000e+00 0.000000000000000e+00 4.000000000000000e+00
0.000000000000000e+00 -1.000000000000000e+00 3.000000000000000e+00
0.000000000000000e+00 -1.000000000000000e+00 2.000000000000000e+00
0.000000000000000e+00 0.000000000000000e+00 2.000000000000000e+00
0.000000000000000e+00 0.000000000000000e+00 3.000000000000000e+00
1.000000000000000e+00 -1.000000000000000e+00 3.000000000000000e+00
1.000000000000000e+00 -1.000000000000000e+00 2.000000000000000e+00
1.000000000000000e+00 0.000000000000000e+00 2.000000000000000e+00
1.000000000000000e+00 0.000000000000000e+00 3.000000000000000e+00
0.000000000000000e+00 -1.000000000000000e+00 2.000000000000000e+00
0.000000000000000e+00 -1.000000000000000e+00 1.000000000000000e+00
0.000000000000000e+00 0.000000000000000e+00 1.000000000000000e+00
0.000000000000000e+00 0.000000000000000e+00 2.000000000000000e+00
1.000000000000000e+00 -1.000000000000000e+00 2.000000000000000e+00
1.000000000000000e+00 -1.000000000000000e+00 1.000000000000000e+00
1.000000000000000e+00 0.000000000000000e+00 1.000000000000000e+00
1.000000000000000e+00 0.000000000000000e+00 2.000000000000000e+00
0.000000000000000e+00 -1.000000000000000e+00 1.000000000000000e+00
0.000000000000000e+00 -1.000000000000000e+00 0.000000000000000e+00
0.000000000000000e+00 0.000000000000000e+00 0.000000000000000e+00
0.000000000000000e+00 0.000000000000000e+00 1.000000000000000e+00
1.000000000000000e+00 -1.000000000000000e+00 1.000000000000000e+00
1.000000000000000e+00 -1.000000000000000e+00 0.000000000000000e+00
1.000000000000000e+00 0.000000000000000e+00 0.000000000000000e+00
1.000000000000000e+00 0.000000000000000e+00 1.000000000000000e+00
0.000000000000000e+00 0.000000000000000e+00 5.000000000000000e+00
0.000000000000000e+00 0.000000000000000e+00 4.000000000000000e+00
0.000000000000000e+00 1.000000000000000e+00 4.000000000000000e+00
0.000000000000000e+00 1.000000000000000e+00 5.000000000000000e+00
1.000000000000000e+00 0.000000000000000e+00 5.000000000000000e+00
1.000000000000000e+00 0.000000000000000e+00 4.000000000000000e+00
1.000000000000000e+00 1.000000000000000e+00 4.000000000000000e+00
1.000000000000000e+00 1.000000000000000e+00 5.000000000000000e+00
0.000000000000000e+00 0.000000000000000e+00 4.000000000000000e+00
0.000000000000000e+00 0.000000000000000e+00 3.000000000000000e+00
0.000000000000000e+00 1.000000000000000e+00 3.000000000000000e+00
0.000000000000000e+00 1.000000000000000e+00 4.000000000000000e+00
1.000000000000000e+00 0.000000000000000e+00 4.000000000000000e+00
1.000000000000000e+00 0.000000000000000e+00 3.000000000000000e+00
1.000000000000000e+00 1.000000000000000e+00 3.000000000000000e+00
1.000000000000000e+00 1.000000000000000e+00 4.000000000000000e+00
0.000000000000000e+00 0.000000000000000e+00 3.000000000000000e+00
0.000000000000000e+00 0.000000000000000e+00 2.000000000000000e+00
0.000000000000000e+00 1.000000000000000e+00 2.000000000000000e+00
0.000000000000000e+00 1.000000000000000e+00 3.000000000000000e+00
1.000000000000000e+00 0.000000000000000e+00 3.000000000000000e+00
1.000000000000000e+00 0.000000000000000e+00 2.000000000000000e+00
1.000000000000000e+00 1.000000000000000e+00 2.000000000000000e+00
1.000000000000000e+00 1.000000000000000e+00 3.000000000000000e+00
0.000000000000000e+00 0.000000000000000e+00 2.000000000000000e+00
0.000000000000000e+00 0.000000000000000e+00 1.000000000000000e+00
0.000000000000000e+00 1.000000000000000e+00 1.000000000000000e+00
0.000000000000000e+00 1.000000000000000e+00 2.000000000000000e+00
1.000000000000000e+00 0.000000000000000e+00 2.000000000000000e+00
1.000000000000000e+00 0.000000000000000e+00 1.000000000000000e+00
1.000000000000000e+00 1.000000000000000e+00 1.000000000000000e+00
1.000000000000000e+00 1.000000000000000e+00 2.000000000000000e+00
0.000000000000000e+00 0.000000000000000e+00 1.000000000000000e+00
0.000000000000000e+00 0.000000000000000e+00 0.000000000000000e+00
0.000000000000000e+00 1.000000000000000e+00 0.000000000000000e+00
0.000000000000000e+00 1.000000000000000e+00 1.000000000000000e+00
1.000000000000000e+00 0.000000000000000e+00 1.000000000000000e+00
1.000000000000000e+00 0.000000000000000e+00 0.000000000000000e+00
1.000000000000000e+00 1.000000000000000e+00 0.000000000000000e+00
1.000000000000000e+00 1.000000000000000e+00 1.000000000000000e+00
        </DataArray>
      </Points>

      <Cells>
        <DataArray type="Int32" Name="connectivity" format="ascii">
0 1 2 3 4 5 6 7 8 9 10 11 12 13 14 15 16 17 18 19 20 21 22 23 24 25 26 27 28 29 30 31 32 33 34 35 36 37 38 39 40 41 42 43 44 45 46 47 48 49 50 51 52 53 54 55 56 57 58 59 60 61 62 63 64 65 66 67 68 69 70 71 72 73 74 75 76 77 78 79 80 81 82 83 84 85 86 87 88 89 90 91 92 93 94 95 96 97 98 99 100 101 102 103 104 105 106 107 108 109 110 111 112 113 114 115 116 117 118 119 120 121 122 123 124 125 126 127 128 129 130 131 132 133 134 135 136 137 138 139 140 141 142 143 144 145 146 147 148 149 150 151 152 153 154 155 156 157 158 159 
        </DataArray>
        <DataArray type="Int32" Name="offsets" format="ascii">
8 16 24 32 40 48 56 64 72 80 88 96 104 112 120 128 136 144 152 160 
        </DataArray>
        <DataArray type="UInt8" Name="types" format="ascii">
12 12 12 12 12 12 12 12 12 12 12 12 12 12 12 12 12 12 12 12 
        </DataArray>
      </Cells>

  <PointData>
        <DataArray type="Float64" Name="accumulated_plastic_strain" format="ascii">
-1.378073201000620e-03
4.119772884022960e-03
-2.758387968243521e-03
-3.244614145499221e-03
2.246553438826381e-04
7.145293512952503e-04
-2.939689948777502e-03
-2.505439378334077e-03
4.119772884022960e-03
1.887612718480484e-02
-7.087761688662732e-03
-2.758387968243521e-03
7.145293512952503e-04
1.789729596656224e-02
-7.347880946942038e-03
-2.939689948777502e-03
1.887612718480484e-02
8.273863964910519e-03
-4.627759250544533e-03
-7.087761688662732e-03
1.789729596656224e-02
7.173074873665943e-03
-4.826391520991180e-03
-7.347880946942038e-03
8.273863964910519e-03
-1.695629940723929e-03
-1.137962193493519e-03
-4.627759250544533e-03
7.173074873665943e-03
-1.456034378452605e-03
-1.322329555900596e-03
-4.826391520991180e-03
-1.695629940723929e-03
0.000000000000000e+00
-3.146201884356898e-04
-1.137962193493519e-03
-1.456034378452605e-03
0.000000000000000e+00
-3.340881603103893e-04
-1.322329555900596e-03
-3.244614145499221e-03
-2.758387968243521e-03
1.646911520492006e-02
2.559620288492017e-02
-2.505439378334077e-03
-2.939689948777502e-03
2.122761514337913e-02
1.847619876657048e-02
-2.758387968243521e-03
-7.087761688662732e-03
3.402764628325418e-02
1.646911520492006e-02
-2.939689948777502e-03
-7.347880946942038e-03
3.694803407734778e-02
2.122761514337913e-02
-7.087761688662732e-03
-4.627759250544533e-03
2.626820133154763e-02
3.402764628325418e-02
-7.347880946942038e-03
-4.826391520991180e-03
2.885160187345150e-02
3.694803407734778e-02
-4.627759250544533e-03
-1.137962193493519e-03
1.018949538714461e-02
2.626820133154763e-02
-4.826391520991180e-03
-1.322329555900596e-03
1.132603655239464e-02
2.885160187345150e-02
-1.137962193493519e-03
-3.146201884356898e-04
2.348357056657778e-03
1.018949538714461e-02
-1.322329555900596e-03
-3.340881603103893e-04
2.493667976971179e-03
1.132603655239464e-02
2.246553438826381e-04
7.145293512952503e-04
-2.939689948777502e-03
-2.505439378334077e-03
-1.378073201000625e-03
4.119772884023013e-03
-2.758387968243523e-03
-3.244614145499218e-03
7.145293512952503e-04
1.789729596656224e-02
-7.347880946942038e-03
-2.939689948777502e-03
4.119772884023013e-03
1.887612718480490e-02
-7.087761688662741e-03
-2.758387968243523e-03
1.789729596656224e-02
7.173074873665943e-03
-4.826391520991180e-03
-7.347880946942038e-03
1.887612718480490e-02
8.273863964910488e-03
-4.627759250544517e-03
-7.087761688662741e-03
7.173074873665943e-03
-1.456034378452605e-03
-1.322329555900596e-03
-4.826391520991180e-03
8.273863964910488e-03
-1.695629940723928e-03
-1.137962193493521e-03
-4.627759250544517e-03
-1.456034378452605e-03
0.000000000000000e+00
-3.340881603103893e-04
-1.322329555900596e-03
-1.695629940723928e-03
0.000000000000000e+00
-3.146201884357065e-04
-1.137962193493521e-03
-2.505439378334077e-03
-2.939689948777502e-03
2.122761514337913e-02
1.847619876657048e-02
-3.244614145499218e-03
-2.758387968243523e-03
1.646911520492001e-02
2.559620288492014e-02
-2.939689948777502e-03
-7.347880946942038e-03
3.694803407734778e-02
2.122761514337913e-02
-2.758387968243523e-03
-7.087761688662741e-03
3.402764628325419e-02
1.646911520492001e-02
-7.347880946942038e-03
-4.826391520991180e-03
2.885160187345150e-02
3.694803407734778e-02
-7.087761688662741e-03
-4.627759250544517e-03
2.626820133154753e-02
3.402764628325419e-02
-4.826391520991180e-03
-1.322329555900596e-03
1.132603655239464e-02
2.885160187345150e-02
-4.627759250544517e-03
-1.137962193493521e-03
1.018949538714462e-02
2.626820133154753e-02
-1.322329555900596e-03
-3.340881603103893e-04
2.493667976971179e-03
1.132603655239464e-02
-1.137962193493521e-03
-3.146201884357065e-04
2.348357056657902e-03
1.018949538714462e-02
        </DataArray>
        <DataArray type="Float64" Name="displacement" NumberOfComponents="3" format="ascii">
0.000000000000000e+00 0.000000000000000e+00 0.000000000000000e+00
-9.858543448705051e-02 -4.999841030993800e-02 8.469811704067608e-02
1.109618069101719e-02 -3.351596473089219e-02 -7.801637437912967e-03
0.000000000000000e+00 0.000000000000000e+00 0.000000000000000e+00
0.000000000000000e+00 0.000000000000000e+00 0.000000000000000e+00
1.222934463475834e-16 -9.451797100463193e-02 7.877793777382323e-02
3.607132642179321e-17 -7.935042036310765e-02 -8.019237280925075e-03
0.000000000000000e+00 0.000000000000000e+00 0.000000000000000e+00
-9.858543448705051e-02 -4.999841030993800e-02 8.469811704067608e-02
-1.281637802452325e-01 -2.275331832364214e-01 2.238747437236373e-01
1.461437238784912e-02 -2.125361853201927e-01 -1.647835812323018e-02
1.109618069101719e-02 -3.351596473089219e-02 -7.801637437912967e-03
1.222934463475834e-16 -9.451797100463193e-02 7.877793777382323e-02
1.578797738911247e-16 -2.903209095386169e-01 2.218478671358174e-01
1.166384866539761e-16 -2.704318034225281e-01 -1.658049446110579e-02
3.607132642179321e-17 -7.935042036310765e-02 -8.019237280925075e-03
-1.281637802452325e-01 -2.275331832364214e-01 2.238747437236373e-01
-1.070834280704665e-01 -5.726269299248632e-01 3.607122163199882e-01
1.117627858647702e-02 -5.584904089923325e-01 -2.411518419577275e-02
1.461437238784912e-02 -2.125361853201927e-01 -1.647835812323018e-02
1.578797738911247e-16 -2.903209095386169e-01 2.218478671358174e-01
3.106752576585290e-16 -6.265653961761859e-01 3.648900797462757e-01
2.444189474139065e-16 -6.099521845202208e-01 -2.428730269077637e-02
1.166384866539761e-16 -2.704318034225281e-01 -1.658049446110579e-02
-1.070834280704665e-01 -5.726269299248632e-01 3.607122163199882e-01
-8.042718130529235e-02 -1.056797106045468e+00 4.771091746145755e-01
5.499444568448611e-03 -1.046478201201824e+00 -3.084831311466316e-02
1.117627858647702e-02 -5.584904089923325e-01 -2.411518419577275e-02
3.106752576585290e-16 -6.265653961761859e-01 3.648900797462757e-01
4.503260847580773e-16 -1.097600458934932e+00 4.829301043652698e-01
3.990154943748521e-16 -1.086649612403947e+00 -3.119973503204332e-02
2.444189474139065e-16 -6.099521845202208e-01 -2.428730269077637e-02
-8.042718130529235e-02 -1.056797106045468e+00 4.771091746145755e-01
-6.452661330240879e-02 -1.647318628888737e+00 5.708990910510653e-01
2.033146205314817e-03 -1.639737929243176e+00 -3.614301526706358e-02
5.499444568448611e-03 -1.046478201201824e+00 -3.084831311466316e-02
4.503260847580773e-16 -1.097600458934932e+00 4.829301043652698e-01
6.595701664495999e-16 -1.679126683210400e+00 5.760472408802075e-01
5.411627605489010e-16 -1.671356564312188e+00 -3.626041070480258e-02
3.990154943748521e-16 -1.086649612403947e+00 -3.119973503204332e-02
0.000000000000000e+00 0.000000000000000e+00 0.000000000000000e+00
1.109618069101719e-02 -3.351596473089219e-02 -7.801637437912967e-03
9.272477419341243e-02 -5.171775935423623e-02 -8.500468906025349e-02
0.000000000000000e+00 0.000000000000000e+00 0.000000000000000e+00
0.000000000000000e+00 0.000000000000000e+00 0.000000000000000e+00
3.607132642179321e-17 -7.935042036310765e-02 -8.019237280925075e-03
-3.188517832719757e-17 -9.318968375573830e-02 -7.601555335677422e-02
0.000000000000000e+00 0.000000000000000e+00 0.000000000000000e+00
1.109618069101719e-02 -3.351596473089219e-02 -7.801637437912967e-03
1.461437238784912e-02 -2.125361853201927e-01 -1.647835812323018e-02
1.172001759697349e-01 -2.254853726591337e-01 -2.558300616343815e-01
9.272477419341243e-02 -5.171775935423623e-02 -8.500468906025349e-02
3.607132642179321e-17 -7.935042036310765e-02 -8.019237280925075e-03
1.166384866539761e-16 -2.704318034225281e-01 -1.658049446110579e-02
-6.817465877078163e-18 -2.848603393650597e-01 -2.523658067028394e-01
-3.188517832719757e-17 -9.318968375573830e-02 -7.601555335677422e-02
1.461437238784912e-02 -2.125361853201927e-01 -1.647835812323018e-02
1.117627858647702e-02 -5.584904089923325e-01 -2.411518419577275e-02
1.027571548320516e-01 -5.715486044238806e-01 -4.252792125399346e-01
1.172001759697349e-01 -2.254853726591337e-01 -2.558300616343815e-01
1.166384866539761e-16 -2.704318034225281e-01 -1.658049446110579e-02
2.444189474139065e-16 -6.099521845202208e-01 -2.428730269077637e-02
1.415591413005465e-16 -6.231089972749771e-01 -4.297121789858124e-01
-6.817465877078163e-18 -2.848603393650597e-01 -2.523658067028394e-01
1.117627858647702e-02 -5.584904089923325e-01 -2.411518419577275e-02
5.499444568448611e-03 -1.046478201201824e+00 -3.084831311466316e-02
7.806937784455485e-02 -1.059137322998270e+00 -5.582178778242796e-01
1.027571548320516e-01 -5.715486044238806e-01 -4.252792125399346e-01
2.444189474139065e-16 -6.099521845202208e-01 -2.428730269077637e-02
3.990154943748521e-16 -1.086649612403947e+00 -3.119973503204332e-02
2.626771522077734e-16 -1.098162272831893e+00 -5.638410388495630e-01
1.415591413005465e-16 -6.231089972749771e-01 -4.297121789858124e-01
5.499444568448611e-03 -1.046478201201824e+00 -3.084831311466316e-02
2.033146205314817e-03 -1.639737929243176e+00 -3.614301526706358e-02
6.017201422223509e-02 -1.649902962959793e+00 -6.496317670671177e-01
7.806937784455485e-02 -1.059137322998270e+00 -5.582178778242796e-01
3.990154943748521e-16 -1.086649612403947e+00 -3.119973503204332e-02
5.411627605489010e-16 -1.671356564312188e+00 -3.626041070480258e-02
3.968582640325199e-16 -1.680430999335507e+00 -6.540477486471488e-01
2.626771522077734e-16 -1.098162272831893e+00 -5.638410388495630e-01
0.000000000000000e+00 0.000000000000000e+00 0.000000000000000e+00
1.222934463475834e-16 -9.451797100463193e-02 7.877793777382323e-02
3.607132642179321e-17 -7.935042036310765e-02 -8.019237280925075e-03
0.000000000000000e+00 0.000000000000000e+00 0.000000000000000e+00
0.000000000000000e+00 0.000000000000000e+00 0.000000000000000e+00
9.858543448705079e-02 -4.999841030993794e-02 8.469811704067616e-02
-1.109618069101710e-02 -3.351596473089206e-02 -7.801637437912906e-03
0.000000000000000e+00 0.000000000000000e+00 0.000000000000000e+00
1.222934463475834e-16 -9.451797100463193e-02 7.877793777382323e-02
1.578797738911247e-16 -2.903209095386169e-01 2.218478671358174e-01
1.166384866539761e-16 -2.704318034225281e-01 -1.658049446110579e-02
3.607132642179321e-17 -7.935042036310765e-02 -8.019237280925075e-03
9.858543448705079e-02 -4.999841030993794e-02 8.469811704067616e-02
1.281637802452328e-01 -2.275331832364213e-01 2.238747437236374e-01
-1.461437238784890e-02 -2.125361853201926e-01 -1.647835812323000e-02
-1.109618069101710e-02 -3.351596473089206e-02 -7.801637437912906e-03
1.578797738911247e-16 -2.903209095386169e-01 2.218478671358174e-01
3.106752576585290e-16 -6.265653961761859e-01 3.648900797462757e-01
2.444189474139065e-16 -6.099521845202208e-01 -2.428730269077637e-02
1.166384866539761e-16 -2.704318034225281e-01 -1.658049446110579e-02
1.281637802452328e-01 -2.275331832364213e-01 2.238747437236374e-01
1.070834280704671e-01 -5.726269299248631e-01 3.607122163199883e-01
-1.117627858647656e-02 -5.584904089923324e-01 -2.411518419577256e-02
-1.461437238784890e-02 -2.125361853201926e-01 -1.647835812323000e-02
3.106752576585290e-16 -6.265653961761859e-01 3.648900797462757e-01
4.503260847580773e-16 -1.097600458934932e+00 4.829301043652698e-01
3.990154943748521e-16 -1.086649612403947e+00 -3.119973503204332e-02
2.444189474139065e-16 -6.099521845202208e-01 -2.428730269077637e-02
1.070834280704671e-01 -5.726269299248631e-01 3.607122163199883e-01
8.042718130529326e-02 -1.056797106045468e+00 4.771091746145758e-01
-5.499444568447880e-03 -1.046478201201824e+00 -3.084831311466290e-02
-1.117627858647656e-02 -5.584904089923324e-01 -2.411518419577256e-02
4.503260847580773e-16 -1.097600458934932e+00 4.829301043652698e-01
6.595701664495999e-16 -1.679126683210400e+00 5.760472408802075e-01
5.411627605489010e-16 -1.671356564312188e+00 -3.626041070480258e-02
3.990154943748521e-16 -1.086649612403947e+00 -3.119973503204332e-02
8.042718130529326e-02 -1.056797106045468e+00 4.771091746145758e-01
6.452661330240991e-02 -1.647318628888737e+00 5.708990910510656e-01
-2.033146205313735e-03 -1.639737929243176e+00 -3.614301526706325e-02
-5.499444568447880e-03 -1.046478201201824e+00 -3.084831311466290e-02
0.000000000000000e+00 0.000000000000000e+00 0.000000000000000e+00
3.607132642179321e-17 -7.935042036310765e-02 -8.019237280925075e-03
-3.188517832719757e-17 -9.318968375573830e-02 -7.601555335677422e-02
0.000000000000000e+00 0.000000000000000e+00 0.000000000000000e+00
0.000000000000000e+00 0.000000000000000e+00 0.000000000000000e+00
-1.109618069101710e-02 -3.351596473089206e-02 -7.801637437912906e-03
-9.272477419341249e-02 -5.171775935423601e-02 -8.500468906025341e-02
0.000000000000000e+00 0.000000000000000e+00 0.000000000000000e+00
3.607132642179321e-17 -7.935042036310765e-02 -8.019237280925075e-03
1.166384866539761e-16 -2.704318034225281e-01 -1.658049446110579e-02
-6.817465877078163e-18 -2.848603393650597e-01 -2.523658067028394e-01
-3.188517832719757e-17 -9.318968375573830e-02 -7.601555335677422e-02
-1.109618069101710e-02 -3.351596473089206e-02 -7.801637437912906e-03
-1.461437238784890e-02 -2.125361853201926e-01 -1.647835812323000e-02
-1.172001759697349e-01 -2.254853726591334e-01 -2.558300616343813e-01
-9.272477419341249e-02 -5.171775935423601e-02 -8.500468906025341e-02
1.166384866539761e-16 -2.704318034225281e-01 -1.658049446110579e-02
2.444189474139065e-16 -6.099521845202208e-01 -2.428730269077637e-02
1.415591413005465e-16 -6.231089972749771e-01 -4.297121789858124e-01
-6.817465877078163e-18 -2.848603393650597e-01 -2.523658067028394e-01
-1.461437238784890e-02 -2.125361853201926e-01 -1.647835812323000e-02
-1.117627858647656e-02 -5.584904089923324e-01 -2.411518419577256e-02
-1.027571548320513e-01 -5.715486044238804e-01 -4.252792125399343e-01
-1.172001759697349e-01 -2.254853726591334e-01 -2.558300616343813e-01
2.444189474139065e-16 -6.099521845202208e-01 -2.428730269077637e-02
3.990154943748521e-16 -1.086649612403947e+00 -3.119973503204332e-02
2.626771522077734e-16 -1.098162272831893e+00 -5.638410388495630e-01
1.415591413005465e-16 -6.231089972749771e-01 -4.297121789858124e-01
-1.117627858647656e-02 -5.584904089923324e-01 -2.411518419577256e-02
-5.499444568447880e-03 -1.046478201201824e+00 -3.084831311466290e-02
-7.806937784455437e-02 -1.059137322998269e+00 -5.582178778242792e-01
-1.027571548320513e-01 -5.715486044238804e-01 -4.252792125399343e-01
3.990154943748521e-16 -1.086649612403947e+00 -3.119973503204332e-02
5.411627605489010e-16 -1.671356564312188e+00 -3.626041070480258e-02
3.968582640325199e-16 -1.680430999335507e+00 -6.540477486471488e-01
2.626771522077734e-16 -1.098162272831893e+00 -5.638410388495630e-01
-5.499444568447880e-03 -1.046478201201824e+00 -3.084831311466290e-02
-2.033146205313735e-03 -1.639737929243176e+00 -3.614301526706325e-02
-6.017201422223421e-02 -1.649902962959793e+00 -6.496317670671174e-01
-7.806937784455437e-02 -1.059137322998269e+00 -5.582178778242792e-01
        </DataArray>
        <DataArray type="Float64" Name="nodal_GL_strains_xyz" NumberOfComponents="6" format="ascii">
-4.456070928915423e-17 -4.770489558936220e-18 -8.469811704067612e-02 -1.550409106654271e-17 2.499920515496901e-02 4.929271724352530e-02
9.858543448705065e-02 1.648244557904580e-02 -1.119373718618187e-01 3.258102724168686e-02 1.063341856981084e-02 2.908085542788167e-02
-1.109618069101716e-02 -8.596745221491038e-04 8.239179061615105e-03 2.491032435400801e-02 1.070834480481579e-02 -3.762393018468326e-03
1.593777193553692e-17 -1.214306433183765e-17 7.801637437912976e-03 -6.125742274543100e-18 1.675798236544611e-02 -5.548090345508611e-03
1.677802861921318e-17 -5.421010862427522e-20 -7.877793777382328e-02 -3.198396408832238e-17 4.725898550231598e-02 -3.962758940434519e-17
9.858543448705065e-02 1.516755064152429e-02 -1.109239335679088e-01 -8.673617379884035e-19 2.918163985728011e-02 -1.441988889405721e-17
-1.109618069101715e-02 6.641436244468060e-04 8.290247230552897e-03 -2.168404344971009e-18 2.890957807298269e-02 -1.684579125499353e-17
-2.602085213965211e-18 -4.228388472693467e-18 8.019237280925080e-03 -6.247715018947719e-18 3.967521018155383e-02 -2.211772431870429e-17
9.858543448705065e-02 1.648244557904580e-02 -1.119373718618187e-01 3.258102724168686e-02 1.063341856981084e-02 2.908085542788167e-02
1.281637802452326e-01 1.499699791622870e-02 -1.380070496396561e-01 3.999521316544311e-02 1.048057898029760e-02 1.111060101944080e-03
-1.461437238784902e-02 1.023905288643928e-03 8.156773378929900e-03 3.239318000257415e-02 1.131740972585535e-02 -7.109264280274981e-05
-1.109618069101716e-02 -8.596745221491038e-04 8.239179061615105e-03 2.491032435400801e-02 1.070834480481579e-02 -3.762393018468326e-03
9.858543448705065e-02 1.516755064152429e-02 -1.109239335679088e-01 -8.673617379884035e-19 2.918163985728011e-02 -1.441988889405721e-17
1.281637802452326e-01 1.988910611608884e-02 -1.430560709862263e-01 2.081668171172169e-17 1.379767549442686e-02 -4.315124646492308e-17
-1.461437238784901e-02 2.730285086778703e-03 8.134032704925648e-03 3.556183125752455e-17 1.409702257961410e-02 -2.175180608549043e-18
-1.109618069101715e-02 6.641436244468060e-04 8.290247230552897e-03 -2.168404344971009e-18 2.890957807298269e-02 -1.684579125499353e-17
1.281637802452326e-01 1.499699791622870e-02 -1.380070496396561e-01 3.999521316544311e-02 1.048057898029760e-02 1.111060101944080e-03
1.070834280704668e-01 1.413652093253082e-02 -1.266172154454691e-01 3.216062020281042e-02 1.490228044438107e-02 -9.845218021841282e-03
-1.117627858647677e-02 5.391627504913350e-04 7.184977495716498e-03 2.672925796168537e-02 1.198764675542720e-02 2.192672707348311e-03
-1.461437238784902e-02 1.023905288643928e-03 8.156773378929900e-03 3.239318000257415e-02 1.131740972585535e-02 -7.109264280274981e-05
1.281637802452326e-01 1.988910611608884e-02 -1.430560709862263e-01 2.081668171172169e-17 1.379767549442686e-02 -4.315124646492308e-17
1.070834280704668e-01 1.661321165596507e-02 -1.305411186147262e-01 -5.551115123125783e-17 7.231196130552678e-03 2.927345865710862e-17
-1.117627858647679e-02 1.728199450604403e-03 7.309620285468763e-03 -3.512815038853034e-17 5.403887562332624e-03 -4.465896511103573e-17
-1.461437238784901e-02 2.730285086778703e-03 8.134032704925648e-03 3.556183125752455e-17 1.409702257961410e-02 -2.175180608549043e-18
1.070834280704668e-01 1.413652093253082e-02 -1.266172154454691e-01 3.216062020281042e-02 1.490228044438107e-02 -9.845218021841282e-03
8.042718130529283e-02 1.031890484364316e-02 -1.050934373655386e-01 2.256163649213846e-02 1.469418087634915e-02 -7.728738816667267e-03
-5.499444568448220e-03 -1.170108476401130e-03 6.013915535645437e-03 1.953843418640040e-02 1.148011695299711e-02 2.110072136600472e-03
-1.117627858647677e-02 5.391627504913350e-04 7.184977495716498e-03 2.672925796168537e-02 1.198764675542720e-02 2.192672707348311e-03
1.070834280704668e-01 1.661321165596507e-02 -1.305411186147262e-01 -5.551115123125783e-17 7.231196130552678e-03 2.927345865710862e-17
8.042718130529283e-02 1.095084653098464e-02 -1.055785805669659e-01 -4.597017211338539e-17 6.075402059896940e-03 -1.734723475976807e-17
-5.499444568448247e-03 -2.809069484807066e-04 5.986554007013110e-03 3.599551212651875e-17 3.658309144283648e-03 -1.114017732228856e-17
-1.117627858647679e-02 1.728199450604403e-03 7.309620285468763e-03 -3.512815038853034e-17 5.403887562332624e-03 -4.465896511103573e-17
8.042718130529283e-02 1.031890484364316e-02 -1.050934373655386e-01 2.256163649213846e-02 1.469418087634915e-02 -7.728738816667267e-03
6.452661330240947e-02 7.580699645561491e-03 -8.366715463752834e-02 1.737585259303068e-02 1.242883554479950e-02 -5.148703869110262e-03
-2.033146205314279e-03 -1.292167035528066e-03 3.699880147696107e-03 1.536533934665487e-02 1.175262333483358e-02 1.205832063383858e-03
-5.499444568448220e-03 -1.170108476401130e-03 6.013915535645437e-03 1.953843418640040e-02 1.148011695299711e-02 2.110072136600472e-03
8.042718130529283e-02 1.095084653098464e-02 -1.055785805669659e-01 -4.597017211338539e-17 6.075402059896940e-03 -1.734723475976807e-17
6.452661330240936e-02 7.770118898211763e-03 -8.304958559252856e-02 -5.898059818321144e-17 5.762726263131973e-03 -7.264154555652880e-17
-2.033146205314279e-03 -6.521580625535441e-04 3.445614257512121e-03 -1.075528555105620e-16 5.500027405527592e-03 5.295649986233886e-17
-5.499444568448247e-03 -2.809069484807066e-04 5.986554007013110e-03 3.599551212651875e-17 3.658309144283648e-03 -1.114017732228856e-17
1.593777193553692e-17 -1.214306433183765e-17 7.801637437912976e-03 -6.125742274543100e-18 1.675798236544611e-02 -5.548090345508611e-03
-1.109618069101716e-02 -8.596745221491038e-04 8.239179061615105e-03 2.491032435400801e-02 1.070834480481579e-02 -3.762393018468326e-03
-9.272477419341249e-02 -1.820179462334405e-02 1.279150308171907e-01 2.007833455044660e-02 1.776981735361315e-02 -2.480547614069412e-02
-6.938893903907228e-18 -9.107298248878237e-18 8.500468906025353e-02 8.890457814381136e-18 2.585887967711811e-02 -4.636238709670622e-02
-2.602085213965211e-18 -4.228388472693467e-18 8.019237280925080e-03 -6.247715018947719e-18 3.967521018155383e-02 -2.211772431870429e-17
-1.109618069101715e-02 6.641436244468060e-04 8.290247230552897e-03 -2.168404344971009e-18 2.890957807298269e-02 -1.684579125499353e-17
-9.272477419341246e-02 -1.383926339263067e-02 1.261829033514197e-01 -3.469446951953614e-18 3.721692680334034e-02 3.209238430557093e-17
-3.469446951953614e-18 2.818925648462312e-18 7.601555335677423e-02 8.131516293641283e-18 4.659484187786916e-02 1.214306433183765e-17
-1.109618069101716e-02 -8.596745221491038e-04 8.239179061615105e-03 2.491032435400801e-02 1.070834480481579e-02 -3.762393018468326e-03
-1.461437238784902e-02 1.023905288643928e-03 8.156773378929900e-03 3.239318000257415e-02 1.131740972585535e-02 -7.109264280274981e-05
-1.172001759697349e-01 -1.294918733894097e-02 1.701372617398406e-01 2.160541843798000e-02 1.028185951183550e-02 -7.759676938887752e-04
-9.272477419341249e-02 -1.820179462334405e-02 1.279150308171907e-01 2.007833455044660e-02 1.776981735361315e-02 -2.480547614069412e-02
-1.109618069101715e-02 6.641436244468060e-04 8.290247230552897e-03 -2.168404344971009e-18 2.890957807298269e-02 -1.684579125499353e-17
-1.461437238784901e-02 2.730285086778703e-03 8.134032704925648e-03 3.556183125752455e-17 1.409702257961410e-02 -2.175180608549043e-18
-1.172001759697349e-01 -1.442853594253143e-02 1.768483128145192e-01 3.729655473350135e-17 1.458717225894288e-02 1.539567084929416e-17
-9.272477419341246e-02 -1.383926339263067e-02 1.261829033514197e-01 -3.469446951953614e-18 3.721692680334034e-02 3.209238430557093e-17
-1.461437238784902e-02 1.023905288643928e-03 8.156773378929900e-03 3.239318000257415e-02 1.131740972585535e-02 -7.109264280274981e-05
-1.117627858647677e-02 5.391627504913350e-04 7.184977495716498e-03 2.672925796168537e-02 1.198764675542720e-02 2.192672707348311e-03
-1.027571548320515e-01 -1.305819543154787e-02 1.511939080949490e-01 2.001024169723909e-02 7.830973412703064e-03 7.566216308356140e-03
-1.172001759697349e-01 -1.294918733894097e-02 1.701372617398406e-01 2.160541843798000e-02 1.028185951183550e-02 -7.759676938887752e-04
-1.461437238784901e-02 2.730285086778703e-03 8.134032704925648e-03 3.556183125752455e-17 1.409702257961410e-02 -2.175180608549043e-18
-1.117627858647679e-02 1.728199450604403e-03 7.309620285468763e-03 -3.512815038853034e-17 5.403887562332624e-03 -4.465896511103573e-17
-1.027571548320514e-01 -1.315681275475621e-02 1.557376160733618e-01 4.857225732735060e-17 6.130452191902801e-04 4.770489558936220e-17
-1.172001759697349e-01 -1.442853594253143e-02 1.768483128145192e-01 3.729655473350135e-17 1.458717225894288e-02 1.539567084929416e-17
-1.117627858647677e-02 5.391627504913350e-04 7.184977495716498e-03 2.672925796168537e-02 1.198764675542720e-02 2.192672707348311e-03
-5.499444568448220e-03 -1.170108476401130e-03 6.013915535645437e-03 1.953843418640040e-02 1.148011695299711e-02 2.110072136600472e-03
-7.806937784455457e-02 -1.265912179644522e-02 1.121762772635915e-01 1.677249172124147e-02 5.903807279169953e-03 7.834704639812413e-03
-1.027571548320515e-01 -1.305819543154787e-02 1.511939080949490e-01 2.001024169723909e-02 7.830973412703064e-03 7.566216308356140e-03
-1.117627858647679e-02 1.728199450604403e-03 7.309620285468763e-03 -3.512815038853034e-17 5.403887562332624e-03 -4.465896511103573e-17
-5.499444568448247e-03 -2.809069484807066e-04 5.986554007013110e-03 3.599551212651875e-17 3.658309144283648e-03 -1.114017732228856e-17
-7.806937784455460e-02 -1.151266042794607e-02 1.121677848306682e-01 6.071532165918825e-17 -1.990151393627337e-03 2.818925648462312e-17
-1.027571548320514e-01 -1.315681275475621e-02 1.557376160733618e-01 4.857225732735060e-17 6.130452191902801e-04 4.770489558936220e-17
-5.499444568448220e-03 -1.170108476401130e-03 6.013915535645437e-03 1.953843418640040e-02 1.148011695299711e-02 2.110072136600472e-03
-2.033146205314279e-03 -1.292167035528066e-03 3.699880147696107e-03 1.536533934665487e-02 1.175262333483358e-02 1.205832063383858e-03
-6.017201422223471e-02 -1.016503371661720e-02 8.175718010139228e-02 1.380541582060324e-02 8.847897670367958e-03 5.166881943740396e-03
-7.806937784455457e-02 -1.265912179644522e-02 1.121762772635915e-01 1.677249172124147e-02 5.903807279169953e-03 7.834704639812413e-03
-5.499444568448247e-03 -2.809069484807066e-04 5.986554007013110e-03 3.599551212651875e-17 3.658309144283648e-03 -1.114017732228856e-17
-2.033146205314279e-03 -6.521580625535441e-04 3.445614257512121e-03 -1.075528555105620e-16 5.500027405527592e-03 5.295649986233886e-17
-6.017201422223466e-02 -9.074435023319050e-03 8.068004533929606e-02 -2.172741153660951e-16 3.021253426382682e-03 -4.141652298894627e-17
-7.806937784455460e-02 -1.151266042794607e-02 1.121677848306682e-01 6.071532165918825e-17 -1.990151393627337e-03 2.818925648462312e-17
1.677802861921318e-17 -5.421010862427522e-20 -7.877793777382328e-02 -3.198396408832238e-17 4.725898550231598e-02 -3.962758940434519e-17
9.858543448705065e-02 1.516755064152429e-02 -1.109239335679088e-01 -8.673617379884035e-19 2.918163985728011e-02 -1.441988889405721e-17
-1.109618069101715e-02 6.641436244468060e-04 8.290247230552897e-03 -2.168404344971009e-18 2.890957807298269e-02 -1.684579125499353e-17
-2.602085213965211e-18 -4.228388472693467e-18 8.019237280925080e-03 -6.247715018947719e-18 3.967521018155383e-02 -2.211772431870429e-17
5.464378949326942e-17 7.806255641895632e-18 -8.469811704067619e-02 -2.558717127065790e-17 2.499920515496897e-02 -4.929271724352539e-02
9.858543448705065e-02 1.648244557904585e-02 -1.119373718618187e-01 -3.258102724168697e-02 1.063341856981082e-02 -2.908085542788174e-02
-1.109618069101713e-02 -8.596745221490457e-04 8.239179061615013e-03 -2.491032435400804e-02 1.070834480481574e-02 3.762393018468317e-03
-1.778091562876227e-17 8.239936510889834e-18 7.801637437912899e-03 -3.252606517456513e-18 1.675798236544603e-02 5.548090345508546e-03
9.858543448705065e-02 1.516755064152429e-02 -1.109239335679088e-01 -8.673617379884035e-19 2.918163985728011e-02 -1.441988889405721e-17
1.281637802452326e-01 1.988910611608884e-02 -1.430560709862263e-01 2.081668171172169e-17 1.379767549442686e-02 -4.315124646492308e-17
-1.461437238784901e-02 2.730285086778703e-03 8.134032704925648e-03 3.556183125752455e-17 1.409702257961410e-02 -2.175180608549043e-18
-1.109618069101715e-02 6.641436244468060e-04 8.290247230552897e-03 -2.168404344971009e-18 2.890957807298269e-02 -1.684579125499353e-17
9.858543448705065e-02 1.648244557904585e-02 -1.119373718618187e-01 -3.258102724168697e-02 1.063341856981082e-02 -2.908085542788174e-02
1.281637802452327e-01 1.499699791622885e-02 -1.380070496396561e-01 -3.999521316544299e-02 1.048057898029756e-02 -1.111060101944114e-03
-1.461437238784902e-02 1.023905288644048e-03 8.156773378929835e-03 -3.239318000257407e-02 1.131740972585539e-02 7.109264280275458e-05
-1.109618069101713e-02 -8.596745221490457e-04 8.239179061615013e-03 -2.491032435400804e-02 1.070834480481574e-02 3.762393018468317e-03
1.281637802452326e-01 1.988910611608884e-02 -1.430560709862263e-01 2.081668171172169e-17 1.379767549442686e-02 -4.315124646492308e-17
1.070834280704668e-01 1.661321165596507e-02 -1.305411186147262e-01 -5.551115123125783e-17 7.231196130552678e-03 2.927345865710862e-17
-1.117627858647679e-02 1.728199450604403e-03 7.309620285468763e-03 -3.512815038853034e-17 5.403887562332624e-03 -4.465896511103573e-17
-1.461437238784901e-02 2.730285086778703e-03 8.134032704925648e-03 3.556183125752455e-17 1.409702257961410e-02 -2.175180608549043e-18
1.281637802452327e-01 1.499699791622885e-02 -1.380070496396561e-01 -3.999521316544299e-02 1.048057898029756e-02 -1.111060101944114e-03
1.070834280704668e-01 1.413652093253068e-02 -1.266172154454692e-01 -3.216062020281070e-02 1.490228044438115e-02 9.845218021841219e-03
-1.117627858647680e-02 5.391627504914348e-04 7.184977495716443e-03 -2.672925796168535e-02 1.198764675542721e-02 -2.192672707348372e-03
-1.461437238784902e-02 1.023905288644048e-03 8.156773378929835e-03 -3.239318000257407e-02 1.131740972585539e-02 7.109264280275458e-05
1.070834280704668e-01 1.661321165596507e-02 -1.305411186147262e-01 -5.551115123125783e-17 7.231196130552678e-03 2.927345865710862e-17
8.042718130529283e-02 1.095084653098464e-02 -1.055785805669659e-01 -4.597017211338539e-17 6.075402059896940e-03 -1.734723475976807e-17
-5.499444568448247e-03 -2.809069484807066e-04 5.986554007013110e-03 3.599551212651875e-17 3.658309144283648e-03 -1.114017732228856e-17
-1.117627858647679e-02 1.728199450604403e-03 7.309620285468763e-03 -3.512815038853034e-17 5.403887562332624e-03 -4.465896511103573e-17
1.070834280704668e-01 1.413652093253068e-02 -1.266172154454692e-01 -3.216062020281070e-02 1.490228044438115e-02 9.845218021841219e-03
8.042718130529283e-02 1.031890484364352e-02 -1.050934373655387e-01 -2.256163649213871e-02 1.469418087634919e-02 7.728738816667250e-03
-5.499444568448274e-03 -1.170108476400881e-03 6.013915535645351e-03 -1.953843418640044e-02 1.148011695299698e-02 -2.110072136600480e-03
-1.117627858647680e-02 5.391627504914348e-04 7.184977495716443e-03 -2.672925796168535e-02 1.198764675542721e-02 -2.192672707348372e-03
8.042718130529283e-02 1.095084653098464e-02 -1.055785805669659e-01 -4.597017211338539e-17 6.075402059896940e-03 -1.734723475976807e-17
6.452661330240936e-02 7.770118898211763e-03 -8.304958559252856e-02 -5.898059818321144e-17 5.762726263131973e-03 -7.264154555652880e-17
-2.033146205314279e-03 -6.521580625535441e-04 3.445614257512121e-03 -1.075528555105620e-16 5.500027405527592e-03 5.295649986233886e-17
-5.499444568448247e-03 -2.809069484807066e-04 5.986554007013110e-03 3.599551212651875e-17 3.658309144283648e-03 -1.114017732228856e-17
8.042718130529283e-02 1.031890484364352e-02 -1.050934373655387e-01 -2.256163649213871e-02 1.469418087634919e-02 7.728738816667250e-03
6.452661330240925e-02 7.580699645561810e-03 -8.366715463752819e-02 -1.737585259303047e-02 1.242883554479957e-02 5.148703869110156e-03
-2.033146205314277e-03 -1.292167035527808e-03 3.699880147696077e-03 -1.536533934665492e-02 1.175262333483367e-02 -1.205832063383836e-03
-5.499444568448274e-03 -1.170108476400881e-03 6.013915535645351e-03 -1.953843418640044e-02 1.148011695299698e-02 -2.110072136600480e-03
-2.602085213965211e-18 -4.228388472693467e-18 8.019237280925080e-03 -6.247715018947719e-18 3.967521018155383e-02 -2.211772431870429e-17
-1.109618069101715e-02 6.641436244468060e-04 8.290247230552897e-03 -2.168404344971009e-18 2.890957807298269e-02 -1.684579125499353e-17
-9.272477419341246e-02 -1.383926339263067e-02 1.261829033514197e-01 -3.469446951953614e-18 3.721692680334034e-02 3.209238430557093e-17
-3.469446951953614e-18 2.818925648462312e-18 7.601555335677423e-02 8.131516293641283e-18 4.659484187786916e-02 1.214306433183765e-17
-1.778091562876227e-17 8.239936510889834e-18 7.801637437912899e-03 -3.252606517456513e-18 1.675798236544603e-02 5.548090345508546e-03
-1.109618069101713e-02 -8.596745221490457e-04 8.239179061615013e-03 -2.491032435400804e-02 1.070834480481574e-02 3.762393018468317e-03
-9.272477419341246e-02 -1.820179462334395e-02 1.279150308171906e-01 -2.007833455044656e-02 1.776981735361309e-02 2.480547614069412e-02
0.000000000000000e+00 6.938893903907228e-18 8.500468906025342e-02 7.806255641895632e-18 2.585887967711803e-02 4.636238709670627e-02
-1.109618069101715e-02 6.641436244468060e-04 8.290247230552897e-03 -2.168404344971009e-18 2.890957807298269e-02 -1.684579125499353e-17
-1.461437238784901e-02 2.730285086778703e-03 8.134032704925648e-03 3.556183125752455e-17 1.409702257961410e-02 -2.175180608549043e-18
-1.172001759697349e-01 -1.442853594253143e-02 1.768483128145192e-01 3.729655473350135e-17 1.458717225894288e-02 1.539567084929416e-17
-9.272477419341246e-02 -1.383926339263067e-02 1.261829033514197e-01 -3.469446951953614e-18 3.721692680334034e-02 3.209238430557093e-17
-1.109618069101713e-02 -8.596745221490457e-04 8.239179061615013e-03 -2.491032435400804e-02 1.070834480481574e-02 3.762393018468317e-03
-1.461437238784902e-02 1.023905288644048e-03 8.156773378929835e-03 -3.239318000257407e-02 1.131740972585539e-02 7.109264280275458e-05
-1.172001759697349e-01 -1.294918733894079e-02 1.701372617398404e-01 -2.160541843797992e-02 1.028185951183552e-02 7.759676938888238e-04
-9.272477419341246e-02 -1.820179462334395e-02 1.279150308171906e-01 -2.007833455044656e-02 1.776981735361309e-02 2.480547614069412e-02
-1.461437238784901e-02 2.730285086778703e-03 8.134032704925648e-03 3.556183125752455e-17 1.409702257961410e-02 -2.175180608549043e-18
-1.117627858647679e-02 1.728199450604403e-03 7.309620285468763e-03 -3.512815038853034e-17 5.403887562332624e-03 -4.465896511103573e-17
-1.027571548320514e-01 -1.315681275475621e-02 1.557376160733618e-01 4.857225732735060e-17 6.130452191902801e-04 4.770489558936220e-17
-1.172001759697349e-01 -1.442853594253143e-02 1.768483128145192e-01 3.729655473350135e-17 1.458717225894288e-02 1.539567084929416e-17
-1.461437238784902e-02 1.023905288644048e-03 8.156773378929835e-03 -3.239318000257407e-02 1.131740972585539e-02 7.109264280275458e-05
-1.117627858647680e-02 5.391627504914348e-04 7.184977495716443e-03 -2.672925796168535e-02 1.198764675542721e-02 -2.192672707348372e-03
-1.027571548320514e-01 -1.305819543154817e-02 1.511939080949490e-01 -2.001024169723888e-02 7.830973412703087e-03 -7.566216308356005e-03
-1.172001759697349e-01 -1.294918733894079e-02 1.701372617398404e-01 -2.160541843797992e-02 1.028185951183552e-02 7.759676938888238e-04
-1.117627858647679e-02 1.728199450604403e-03 7.309620285468763e-03 -3.512815038853034e-17 5.403887562332624e-03 -4.465896511103573e-17
-5.499444568448247e-03 -2.809069484807066e-04 5.986554007013110e-03 3.599551212651875e-17 3.658309144283648e-03 -1.114017732228856e-17
-7.806937784455460e-02 -1.151266042794607e-02 1.121677848306682e-01 6.071532165918825e-17 -1.990151393627337e-03 2.818925648462312e-17
-1.027571548320514e-01 -1.315681275475621e-02 1.557376160733618e-01 4.857225732735060e-17 6.130452191902801e-04 4.770489558936220e-17
-1.117627858647680e-02 5.391627504914348e-04 7.184977495716443e-03 -2.672925796168535e-02 1.198764675542721e-02 -2.192672707348372e-03
-5.499444568448274e-03 -1.170108476400881e-03 6.013915535645351e-03 -1.953843418640044e-02 1.148011695299698e-02 -2.110072136600480e-03
-7.806937784455463e-02 -1.265912179644533e-02 1.121762772635916e-01 -1.677249172124159e-02 5.903807279169908e-03 -7.834704639812423e-03
-1.027571548320514e-01 -1.305819543154817e-02 1.511939080949490e-01 -2.001024169723888e-02 7.830973412703087e-03 -7.566216308356005e-03
-5.499444568448247e-03 -2.809069484807066e-04 5.986554007013110e-03 3.599551212651875e-17 3.658309144283648e-03 -1.114017732228856e-17
-2.033146205314279e-03 -6.521580625535441e-04 3.445614257512121e-03 -1.075528555105620e-16 5.500027405527592e-03 5.295649986233886e-17
-6.017201422223466e-02 -9.074435023319050e-03 8.068004533929606e-02 -2.172741153660951e-16 3.021253426382682e-03 -4.141652298894627e-17
-7.806937784455460e-02 -1.151266042794607e-02 1.121677848306682e-01 6.071532165918825e-17 -1.990151393627337e-03 2.818925648462312e-17
-5.499444568448274e-03 -1.170108476400881e-03 6.013915535645351e-03 -1.953843418640044e-02 1.148011695299698e-02 -2.110072136600480e-03
-2.033146205314277e-03 -1.292167035527808e-03 3.699880147696077e-03 -1.536533934665492e-02 1.175262333483367e-02 -1.205832063383836e-03
-6.017201422223460e-02 -1.016503371661702e-02 8.175718010139213e-02 -1.380541582060248e-02 8.847897670367979e-03 -5.166881943740458e-03
-7.806937784455463e-02 -1.265912179644533e-02 1.121762772635916e-01 -1.677249172124159e-02 5.903807279169908e-03 -7.834704639812423e-03
        </DataArray>
        <DataArray type="Float64" Name="nodal_cauchy_stresses_xyz" NumberOfComponents="6" format="ascii">
-6.737693269207996e+00 -6.749922141609019e+00 -7.342395549101846e+00 4.535985212271757e-03 1.666855794389452e-01 3.405608340101518e-01
5.335004479183044e-01 1.131475563661399e-02 -7.921313734912171e-01 2.062061177493328e-01 5.625870096228179e-02 1.806718718814312e-01
-1.654493993448119e-01 -8.335731823624332e-02 9.234671754144136e-03 1.768920466314986e-01 8.713615147692652e-02 -2.133158858852637e-02
8.753422832269080e-01 8.866748079400842e-01 9.995458046860561e-01 2.710806690032556e-03 1.268588215784692e-01 -6.692291593132862e-02
-6.408346202433469e+00 -6.406556658369810e+00 -6.935745418623180e+00 -2.068657745102342e-16 3.201100680088296e-01 -2.704000218178848e-16
8.300447977587244e-01 2.695152493392220e-01 -5.709294947552207e-01 -4.163336342344337e-17 1.763976455707986e-01 -1.188285581044113e-16
-3.308013651422141e-02 6.718124350230201e-02 1.653739212019332e-01 -2.428612866367530e-17 2.151729837535860e-01 -1.089623183347932e-16
8.403733975938423e-01 8.483106951693778e-01 9.424850720515648e-01 -4.250072516143177e-17 2.924178350499396e-01 -1.509209424099822e-16
5.335004479183044e-01 1.131475563661399e-02 -7.921313734912171e-01 2.062061177493328e-01 5.625870096228179e-02 1.806718718814312e-01
-5.062792539449376e-01 -1.089063800254686e+00 -1.835256611550270e+00 1.827061812338464e-01 3.873700673254622e-02 7.467881973241802e-03
2.715033663951488e-02 1.508335274569388e-01 2.355331280004333e-01 2.435453436825937e-01 8.611534021780112e-02 -6.142489289107907e-04
-1.654493993448119e-01 -8.335731823624332e-02 9.234671754144136e-03 1.768920466314986e-01 8.713615147692652e-02 -2.133158858852637e-02
8.300447977587244e-01 2.695152493392220e-01 -5.709294947552207e-01 -4.163336342344337e-17 1.763976455707986e-01 -1.188285581044113e-16
-4.302389932412671e-01 -9.947621709984893e-01 -1.800118983627006e+00 6.938893903907228e-17 5.653122010612850e-02 -2.294171796979327e-16
1.801378387988847e-01 3.188841897561558e-01 4.004345591443043e-01 2.740863092043355e-16 1.079753473438057e-01 -1.805196617188365e-17
-3.308013651422141e-02 6.718124350230201e-02 1.653739212019332e-01 -2.428612866367530e-17 2.151729837535860e-01 -1.089623183347932e-16
-5.062792539449376e-01 -1.089063800254686e+00 -1.835256611550270e+00 1.827061812338464e-01 3.873700673254622e-02 7.467881973241802e-03
-4.982849361799720e-01 -1.049234755172274e+00 -1.870262910493260e+00 1.822971668295337e-01 8.505355311560103e-02 -5.805334586352481e-02
1.950875524086959e-03 1.019602287436420e-01 1.899941233011704e-01 1.952543479180514e-01 8.291466359061060e-02 1.619636588168391e-02
2.715033663951488e-02 1.508335274569388e-01 2.355331280004333e-01 2.435453436825937e-01 8.611534021780112e-02 -6.142489289107907e-04
-4.302389932412671e-01 -9.947621709984893e-01 -1.800118983627006e+00 6.938893903907228e-17 5.653122010612850e-02 -2.294171796979327e-16
-5.133225760354231e-01 -1.058272407090660e+00 -1.932793457363987e+00 -3.469446951953614e-16 4.497623836283369e-02 1.765081136806401e-16
1.200215682805401e-01 2.314660518581688e-01 3.204955475081807e-01 -2.393918396847994e-16 3.337328980740010e-02 -2.916503843986007e-16
1.801378387988847e-01 3.188841897561558e-01 4.004345591443043e-01 2.740863092043355e-16 1.079753473438057e-01 -1.805196617188365e-17
-4.982849361799720e-01 -1.049234755172274e+00 -1.870262910493260e+00 1.822971668295337e-01 8.505355311560103e-02 -5.805334586352481e-02
-4.598524722470381e-01 -9.490502706265478e-01 -1.754027576096077e+00 1.594660844077679e-01 1.081868977622499e-01 -5.404691691552659e-02
-1.375330979439982e-02 2.865167750244979e-02 1.056828033643492e-01 1.349682483990917e-01 7.287995602990463e-02 1.613133037144050e-02
1.950875524086959e-03 1.019602287436420e-01 1.899941233011704e-01 1.952543479180514e-01 8.291466359061060e-02 1.619636588168391e-02
-5.133225760354231e-01 -1.058272407090660e+00 -1.932793457363987e+00 -3.469446951953614e-16 4.497623836283369e-02 1.765081136806401e-16
-4.698965860810690e-01 -9.528230758854668e-01 -1.763409926092420e+00 -2.775557561562891e-16 4.717370708769208e-02 -1.179611963664229e-16
7.030555449516795e-02 1.196342789740193e-01 1.921931780270011e-01 2.255140518769849e-16 1.840573948883557e-02 -7.296680620827445e-17
1.200215682805401e-01 2.314660518581688e-01 3.204955475081807e-01 -2.393918396847994e-16 3.337328980740010e-02 -2.916503843986007e-16
-4.598524722470381e-01 -9.490502706265478e-01 -1.754027576096077e+00 1.594660844077679e-01 1.081868977622499e-01 -5.404691691552659e-02
-5.012938308937789e-01 -8.860635177643734e-01 -1.502603073731197e+00 1.174044094123694e-01 8.397861854594257e-02 -3.478853965615042e-02
2.791729539180426e-02 3.426509892772281e-02 7.078685594837525e-02 1.043061875520301e-01 7.934529677580973e-02 8.335057328771597e-03
-1.375330979439982e-02 2.865167750244979e-02 1.056828033643492e-01 1.349682483990917e-01 7.287995602990463e-02 1.613133037144050e-02
-4.698965860810690e-01 -9.528230758854668e-01 -1.763409926092420e+00 -2.775557561562891e-16 4.717370708769208e-02 -1.179611963664229e-16
-4.358623473005399e-01 -8.193521743559290e-01 -1.432998826320391e+00 -3.920475055707584e-16 3.893733961575658e-02 -4.917941054394248e-16
5.989473290719420e-02 7.068592658330915e-02 1.012578579593696e-01 -7.407269242420966e-16 3.686469993594851e-02 3.592774949073840e-16
7.030555449516795e-02 1.196342789740193e-01 1.921931780270011e-01 2.255140518769849e-16 1.840573948883557e-02 -7.296680620827445e-17
8.753422832269080e-01 8.866748079400842e-01 9.995458046860561e-01 2.710806690032556e-03 1.268588215784692e-01 -6.692291593132862e-02
-1.654493993448119e-01 -8.335731823624332e-02 9.234671754144136e-03 1.768920466314986e-01 8.713615147692652e-02 -2.133158858852637e-02
-4.366402586150069e-01 -6.215554686040370e-02 6.286325043539691e-01 8.556552288138114e-02 2.531719436258880e-02 -1.823122440629041e-01
4.950437623550479e+00 4.878079379936295e+00 5.023604540346542e+00 -2.476972180567037e-02 7.522031303937550e-02 -1.010493618337578e-01
8.403733975938423e-01 8.483106951693778e-01 9.424850720515648e-01 -4.250072516143177e-17 2.924178350499396e-01 -1.509209424099822e-16
-3.308013651422141e-02 6.718124350230201e-02 1.653739212019332e-01 -2.428612866367530e-17 2.151729837535860e-01 -1.089623183347932e-16
-5.792515386115924e-01 -2.045974249738637e-01 3.816616190848287e-01 -2.255140518769849e-17 1.241684945906013e-01 2.233456475320139e-16
4.764958432216358e+00 4.703924092499317e+00 4.915956122835249e+00 6.071532165918825e-17 1.323455766758505e-01 7.632783294297951e-17
-1.654493993448119e-01 -8.335731823624332e-02 9.234671754144136e-03 1.768920466314986e-01 8.713615147692652e-02 -2.133158858852637e-02
2.715033663951488e-02 1.508335274569388e-01 2.355331280004333e-01 2.435453436825937e-01 8.611534021780112e-02 -6.142489289107907e-04
1.233085726570883e-02 4.003767692626635e-01 1.077355410449248e+00 4.935621197755070e-02 2.954836154385525e-02 -4.204351374599392e-03
-4.366402586150069e-01 -6.215554686040370e-02 6.286325043539691e-01 8.556552288138114e-02 2.531719436258880e-02 -1.823122440629041e-01
-3.308013651422141e-02 6.718124350230201e-02 1.653739212019332e-01 -2.428612866367530e-17 2.151729837535860e-01 -1.089623183347932e-16
1.801378387988847e-01 3.188841897561558e-01 4.004345591443043e-01 2.740863092043355e-16 1.079753473438057e-01 -1.805196617188365e-17
2.247798073100020e-01 5.912486347415041e-01 1.251863264174746e+00 1.769417945496343e-16 4.027614483924082e-02 7.654467337747661e-17
-5.792515386115924e-01 -2.045974249738637e-01 3.816616190848287e-01 -2.255140518769849e-17 1.241684945906013e-01 2.233456475320139e-16
2.715033663951488e-02 1.508335274569388e-01 2.355331280004333e-01 2.435453436825937e-01 8.611534021780112e-02 -6.142489289107907e-04
1.950875524086959e-03 1.019602287436420e-01 1.899941233011704e-01 1.952543479180514e-01 8.291466359061060e-02 1.619636588168391e-02
2.909906633069796e-01 6.643611619170428e-01 1.322237299726465e+00 6.085021129171721e-02 5.424045466161219e-02 3.234668852467148e-02
1.233085726570883e-02 4.003767692626635e-01 1.077355410449248e+00 4.935621197755070e-02 2.954836154385525e-02 -4.204351374599392e-03
1.801378387988847e-01 3.188841897561558e-01 4.004345591443043e-01 2.740863092043355e-16 1.079753473438057e-01 -1.805196617188365e-17
1.200215682805401e-01 2.314660518581688e-01 3.204955475081807e-01 -2.393918396847994e-16 3.337328980740010e-02 -2.916503843986007e-16
4.628433096416994e-01 8.208957382721056e-01 1.459272605361858e+00 2.151057110211241e-16 3.145867063310680e-02 2.671474153004283e-16
2.247798073100020e-01 5.912486347415041e-01 1.251863264174746e+00 1.769417945496343e-16 4.027614483924082e-02 7.654467337747661e-17
1.950875524086959e-03 1.019602287436420e-01 1.899941233011704e-01 1.952543479180514e-01 8.291466359061060e-02 1.619636588168391e-02
-1.375330979439982e-02 2.865167750244979e-02 1.056828033643492e-01 1.349682483990917e-01 7.287995602990463e-02 1.613133037144050e-02
4.800056507872203e-01 8.392868562348432e-01 1.495278051839715e+00 8.427250811178401e-02 6.598340503698066e-02 4.077453233574974e-02
2.909906633069796e-01 6.643611619170428e-01 1.322237299726465e+00 6.085021129171721e-02 5.424045466161219e-02 3.234668852467148e-02
1.200215682805401e-01 2.314660518581688e-01 3.204955475081807e-01 -2.393918396847994e-16 3.337328980740010e-02 -2.916503843986007e-16
7.030555449516795e-02 1.196342789740193e-01 1.921931780270011e-01 2.255140518769849e-16 1.840573948883557e-02 -7.296680620827445e-17
4.883795425189301e-01 8.465714048637039e-01 1.479976554060585e+00 4.024558464266192e-16 2.754696859825314e-02 1.717376241217039e-16
4.628433096416994e-01 8.208957382721056e-01 1.459272605361858e+00 2.151057110211241e-16 3.145867063310680e-02 2.671474153004283e-16
-1.375330979439982e-02 2.865167750244979e-02 1.056828033643492e-01 1.349682483990917e-01 7.287995602990463e-02 1.613133037144050e-02
2.791729539180426e-02 3.426509892772281e-02 7.078685594837525e-02 1.043061875520301e-01 7.934529677580973e-02 8.335057328771597e-03
4.351604927165946e-01 7.630347361699606e-01 1.363293179666311e+00 8.964984172071702e-02 6.026318600645174e-02 3.351152158700108e-02
4.800056507872203e-01 8.392868562348432e-01 1.495278051839715e+00 8.427250811178401e-02 6.598340503698066e-02 4.077453233574974e-02
7.030555449516795e-02 1.196342789740193e-01 1.921931780270011e-01 2.255140518769849e-16 1.840573948883557e-02 -7.296680620827445e-17
5.989473290719420e-02 7.068592658330915e-02 1.012578579593696e-01 -7.407269242420966e-16 3.686469993594851e-02 3.592774949073840e-16
4.310200414792247e-01 7.653749282089767e-01 1.350295556625989e+00 -1.419003803349028e-15 2.263554493194437e-02 -2.914335439641036e-16
4.883795425189301e-01 8.465714048637039e-01 1.479976554060585e+00 4.024558464266192e-16 2.754696859825314e-02 1.717376241217039e-16
-6.408346202433469e+00 -6.406556658369810e+00 -6.935745418623180e+00 -2.068657745102342e-16 3.201100680088296e-01 -2.704000218178848e-16
8.300447977587244e-01 2.695152493392220e-01 -5.709294947552207e-01 -4.163336342344337e-17 1.763976455707986e-01 -1.188285581044113e-16
-3.308013651422141e-02 6.718124350230201e-02 1.653739212019332e-01 -2.428612866367530e-17 2.151729837535860e-01 -1.089623183347932e-16
8.403733975938423e-01 8.483106951693778e-01 9.424850720515648e-01 -4.250072516143177e-17 2.924178350499396e-01 -1.509209424099822e-16
-6.737693269207995e+00 -6.749922141609016e+00 -7.342395549101846e+00 -4.535985212272078e-03 1.666855794389449e-01 -3.405608340101525e-01
5.335004479182989e-01 1.131475563660955e-02 -7.921313734912225e-01 -2.062061177493332e-01 5.625870096228150e-02 -1.806718718814314e-01
-1.654493993448117e-01 -8.335731823624273e-02 9.234671754143664e-03 -1.768920466314988e-01 8.713615147692622e-02 2.133158858852628e-02
8.753422832268999e-01 8.866748079400760e-01 9.995458046860478e-01 -2.710806690032613e-03 1.268588215784686e-01 6.692291593132818e-02
8.300447977587244e-01 2.695152493392220e-01 -5.709294947552207e-01 -4.163336342344337e-17 1.763976455707986e-01 -1.188285581044113e-16
-4.302389932412671e-01 -9.947621709984893e-01 -1.800118983627006e+00 6.938893903907228e-17 5.653122010612850e-02 -2.294171796979327e-16
1.801378387988847e-01 3.188841897561558e-01 4.004345591443043e-01 2.740863092043355e-16 1.079753473438057e-01 -1.805196617188365e-17
-3.308013651422141e-02 6.718124350230201e-02 1.653739212019332e-01 -2.428612866367530e-17 2.151729837535860e-01 -1.089623183347932e-16
5.335004479182989e-01 1.131475563660955e-02 -7.921313734912225e-01 -2.062061177493332e-01 5.625870096228150e-02 -1.806718718814314e-01
-5.062792539449332e-01 -1.089063800254681e+00 -1.835256611550265e+00 -1.827061812338455e-01 3.873700673254599e-02 -7.467881973241892e-03
2.715033663951977e-02 1.508335274569442e-01 2.355331280004376e-01 -2.435453436825932e-01 8.611534021780147e-02 6.142489289108185e-04
-1.654493993448117e-01 -8.335731823624273e-02 9.234671754143664e-03 -1.768920466314988e-01 8.713615147692622e-02 2.133158858852628e-02
-4.302389932412671e-01 -9.947621709984893e-01 -1.800118983627006e+00 6.938893903907228e-17 5.653122010612850e-02 -2.294171796979327e-16
-5.133225760354231e-01 -1.058272407090660e+00 -1.932793457363987e+00 -3.469446951953614e-16 4.497623836283369e-02 1.765081136806401e-16
1.200215682805401e-01 2.314660518581688e-01 3.204955475081807e-01 -2.393918396847994e-16 3.337328980740010e-02 -2.916503843986007e-16
1.801378387988847e-01 3.188841897561558e-01 4.004345591443043e-01 2.740863092043355e-16 1.079753473438057e-01 -1.805196617188365e-17
-5.062792539449332e-01 -1.089063800254681e+00 -1.835256611550265e+00 -1.827061812338455e-01 3.873700673254599e-02 -7.467881973241892e-03
-4.982849361799863e-01 -1.049234755172290e+00 -1.870262910493275e+00 -1.822971668295355e-01 8.505355311560153e-02 5.805334586352448e-02
1.950875524086515e-03 1.019602287436423e-01 1.899941233011695e-01 -1.952543479180511e-01 8.291466359061078e-02 -1.619636588168429e-02
2.715033663951977e-02 1.508335274569442e-01 2.355331280004376e-01 -2.435453436825932e-01 8.611534021780147e-02 6.142489289108185e-04
-5.133225760354231e-01 -1.058272407090660e+00 -1.932793457363987e+00 -3.469446951953614e-16 4.497623836283369e-02 1.765081136806401e-16
-4.698965860810690e-01 -9.528230758854668e-01 -1.763409926092420e+00 -2.775557561562891e-16 4.717370708769208e-02 -1.179611963664229e-16
7.030555449516795e-02 1.196342789740193e-01 1.921931780270011e-01 2.255140518769849e-16 1.840573948883557e-02 -7.296680620827445e-17
1.200215682805401e-01 2.314660518581688e-01 3.204955475081807e-01 -2.393918396847994e-16 3.337328980740010e-02 -2.916503843986007e-16
-4.982849361799863e-01 -1.049234755172290e+00 -1.870262910493275e+00 -1.822971668295355e-01 8.505355311560153e-02 5.805334586352448e-02
-4.598524722470165e-01 -9.490502706265237e-01 -1.754027576096055e+00 -1.594660844077696e-01 1.081868977622502e-01 5.404691691552645e-02
-1.375330979439071e-02 2.865167750246084e-02 1.056828033643583e-01 -1.349682483990920e-01 7.287995602990383e-02 -1.613133037144054e-02
1.950875524086515e-03 1.019602287436423e-01 1.899941233011695e-01 -1.952543479180511e-01 8.291466359061078e-02 -1.619636588168429e-02
-4.698965860810690e-01 -9.528230758854668e-01 -1.763409926092420e+00 -2.775557561562891e-16 4.717370708769208e-02 -1.179611963664229e-16
-4.358623473005399e-01 -8.193521743559290e-01 -1.432998826320391e+00 -3.920475055707584e-16 3.893733961575658e-02 -4.917941054394248e-16
5.989473290719420e-02 7.068592658330915e-02 1.012578579593696e-01 -7.407269242420966e-16 3.686469993594851e-02 3.592774949073840e-16
7.030555449516795e-02 1.196342789740193e-01 1.921931780270011e-01 2.255140518769849e-16 1.840573948883557e-02 -7.296680620827445e-17
-4.598524722470165e-01 -9.490502706265237e-01 -1.754027576096055e+00 -1.594660844077696e-01 1.081868977622502e-01 5.404691691552645e-02
-5.012938308937576e-01 -8.860635177643482e-01 -1.502603073731173e+00 -1.174044094123680e-01 8.397861854594309e-02 3.478853965614970e-02
2.791729539182342e-02 3.426509892774371e-02 7.078685594839423e-02 -1.043061875520304e-01 7.934529677581037e-02 -8.335057328771461e-03
-1.375330979439071e-02 2.865167750246084e-02 1.056828033643583e-01 -1.349682483990920e-01 7.287995602990383e-02 -1.613133037144054e-02
8.403733975938423e-01 8.483106951693778e-01 9.424850720515648e-01 -4.250072516143177e-17 2.924178350499396e-01 -1.509209424099822e-16
-3.308013651422141e-02 6.718124350230201e-02 1.653739212019332e-01 -2.428612866367530e-17 2.151729837535860e-01 -1.089623183347932e-16
-5.792515386115924e-01 -2.045974249738637e-01 3.816616190848287e-01 -2.255140518769849e-17 1.241684945906013e-01 2.233456475320139e-16
4.764958432216358e+00 4.703924092499317e+00 4.915956122835249e+00 6.071532165918825e-17 1.323455766758505e-01 7.632783294297951e-17
8.753422832268999e-01 8.866748079400760e-01 9.995458046860478e-01 -2.710806690032613e-03 1.268588215784686e-01 6.692291593132818e-02
-1.654493993448117e-01 -8.335731823624273e-02 9.234671754143664e-03 -1.768920466314988e-01 8.713615147692622e-02 2.133158858852628e-02
-4.366402586150087e-01 -6.215554686040503e-02 6.286325043539669e-01 -8.556552288138095e-02 2.531719436258844e-02 1.823122440629042e-01
4.950437623550480e+00 4.878079379936295e+00 5.023604540346542e+00 2.476972180567041e-02 7.522031303937539e-02 1.010493618337583e-01
-3.308013651422141e-02 6.718124350230201e-02 1.653739212019332e-01 -2.428612866367530e-17 2.151729837535860e-01 -1.089623183347932e-16
1.801378387988847e-01 3.188841897561558e-01 4.004345591443043e-01 2.740863092043355e-16 1.079753473438057e-01 -1.805196617188365e-17
2.247798073100020e-01 5.912486347415041e-01 1.251863264174746e+00 1.769417945496343e-16 4.027614483924082e-02 7.654467337747661e-17
-5.792515386115924e-01 -2.045974249738637e-01 3.816616190848287e-01 -2.255140518769849e-17 1.241684945906013e-01 2.233456475320139e-16
-1.654493993448117e-01 -8.335731823624273e-02 9.234671754143664e-03 -1.768920466314988e-01 8.713615147692622e-02 2.133158858852628e-02
2.715033663951977e-02 1.508335274569442e-01 2.355331280004376e-01 -2.435453436825932e-01 8.611534021780147e-02 6.142489289108185e-04
1.233085726571395e-02 4.003767692626691e-01 1.077355410449252e+00 -4.935621197755049e-02 2.954836154385509e-02 4.204351374599593e-03
-4.366402586150087e-01 -6.215554686040503e-02 6.286325043539669e-01 -8.556552288138095e-02 2.531719436258844e-02 1.823122440629042e-01
1.801378387988847e-01 3.188841897561558e-01 4.004345591443043e-01 2.740863092043355e-16 1.079753473438057e-01 -1.805196617188365e-17
1.200215682805401e-01 2.314660518581688e-01 3.204955475081807e-01 -2.393918396847994e-16 3.337328980740010e-02 -2.916503843986007e-16
4.628433096416994e-01 8.208957382721056e-01 1.459272605361858e+00 2.151057110211241e-16 3.145867063310680e-02 2.671474153004283e-16
2.247798073100020e-01 5.912486347415041e-01 1.251863264174746e+00 1.769417945496343e-16 4.027614483924082e-02 7.654467337747661e-17
2.715033663951977e-02 1.508335274569442e-01 2.355331280004376e-01 -2.435453436825932e-01 8.611534021780147e-02 6.142489289108185e-04
1.950875524086515e-03 1.019602287436423e-01 1.899941233011695e-01 -1.952543479180511e-01 8.291466359061078e-02 -1.619636588168429e-02
2.909906633069737e-01 6.643611619170351e-01 1.322237299726460e+00 -6.085021129171620e-02 5.424045466161247e-02 -3.234668852467085e-02
1.233085726571395e-02 4.003767692626691e-01 1.077355410449252e+00 -4.935621197755049e-02 2.954836154385509e-02 4.204351374599593e-03
1.200215682805401e-01 2.314660518581688e-01 3.204955475081807e-01 -2.393918396847994e-16 3.337328980740010e-02 -2.916503843986007e-16
7.030555449516795e-02 1.196342789740193e-01 1.921931780270011e-01 2.255140518769849e-16 1.840573948883557e-02 -7.296680620827445e-17
4.883795425189301e-01 8.465714048637039e-01 1.479976554060585e+00 4.024558464266192e-16 2.754696859825314e-02 1.717376241217039e-16
4.628433096416994e-01 8.208957382721056e-01 1.459272605361858e+00 2.151057110211241e-16 3.145867063310680e-02 2.671474153004283e-16
1.950875524086515e-03 1.019602287436423e-01 1.899941233011695e-01 -1.952543479180511e-01 8.291466359061078e-02 -1.619636588168429e-02
-1.375330979439071e-02 2.865167750246084e-02 1.056828033643583e-01 -1.349682483990920e-01 7.287995602990383e-02 -1.613133037144054e-02
4.800056507872087e-01 8.392868562348310e-01 1.495278051839704e+00 -8.427250811178455e-02 6.598340503698016e-02 -4.077453233574983e-02
2.909906633069737e-01 6.643611619170351e-01 1.322237299726460e+00 -6.085021129171620e-02 5.424045466161247e-02 -3.234668852467085e-02
7.030555449516795e-02 1.196342789740193e-01 1.921931780270011e-01 2.255140518769849e-16 1.840573948883557e-02 -7.296680620827445e-17
5.989473290719420e-02 7.068592658330915e-02 1.012578579593696e-01 -7.407269242420966e-16 3.686469993594851e-02 3.592774949073840e-16
4.310200414792247e-01 7.653749282089767e-01 1.350295556625989e+00 -1.419003803349028e-15 2.263554493194437e-02 -2.914335439641036e-16
4.883795425189301e-01 8.465714048637039e-01 1.479976554060585e+00 4.024558464266192e-16 2.754696859825314e-02 1.717376241217039e-16
-1.375330979439071e-02 2.865167750246084e-02 1.056828033643583e-01 -1.349682483990920e-01 7.287995602990383e-02 -1.613133037144054e-02
2.791729539182342e-02 3.426509892774371e-02 7.078685594839423e-02 -1.043061875520304e-01 7.934529677581037e-02 -8.335057328771461e-03
4.351604927166018e-01 7.630347361699678e-01 1.363293179666316e+00 -8.964984172071189e-02 6.026318600645195e-02 -3.351152158700144e-02
4.800056507872087e-01 8.392868562348310e-01 1.495278051839704e+00 -8.427250811178455e-02 6.598340503698016e-02 -4.077453233574983e-02
        </DataArray>
        <DataArray type="Float64" Name="plastic_strain" NumberOfComponents="6" format="ascii">
-2.661922233322044e-03 -8.520491179706071e-04 2.135898150292019e-03 -1.342651622832476e-03 6.594787960102562e-04 -2.220572379954319e-03
7.756192038199259e-03 2.936685587884540e-03 -6.573104742060843e-03 4.125043629571244e-03 4.614261654786289e-03 4.682836778859714e-03
1.890872212323295e-03 -2.224962287681828e-05 -4.627010557689991e-03 -2.539397094907558e-03 -4.375611227538673e-03 -1.210635814732851e-03
3.004361083363929e-03 1.327147425813874e-03 -7.576122654677019e-03 -8.023987802496488e-04 -4.034246456334662e-03 8.713002424656053e-03
4.041205476835570e-04 1.392680262620129e-04 -3.187332300629259e-04 -3.008661028647275e-18 -2.346091259816072e-04 -1.084202172485504e-19
1.113070931210257e-03 6.535602517702525e-04 -1.052101831685250e-03 1.539567084929416e-17 6.149576625603822e-03 3.171291354520100e-18
3.374480866208278e-03 2.961209392267807e-04 -6.610291754212561e-03 -2.385244779468110e-18 -5.872047045096078e-03 -1.897353801849633e-19
1.920857067220993e-03 7.461370260417852e-04 -5.172433471596858e-03 7.589415207398531e-19 -7.205258811674472e-03 0.000000000000000e+00
7.756192038199259e-03 2.936685587884540e-03 -6.573104742060843e-03 4.125043629571244e-03 4.614261654786289e-03 4.682836778859714e-03
3.842432587308850e-02 1.150965639792737e-02 -3.105785508621102e-02 2.590939668566770e-02 9.495003967761539e-03 1.162713980858805e-05
1.216193410153356e-03 -1.450641154332427e-03 -6.853313944483663e-03 -7.303061724899449e-03 -2.855321252758432e-03 3.963239735209345e-05
1.890872212323295e-03 -2.224962287681828e-05 -4.627010557689991e-03 -2.539397094907558e-03 -4.375611227538673e-03 -1.210635814732851e-03
1.113070931210257e-03 6.535602517702525e-04 -1.052101831685250e-03 1.539567084929416e-17 6.149576625603822e-03 3.171291354520100e-18
3.703338414733558e-02 1.230814032626066e-02 -3.144422850703404e-02 1.994931997373328e-17 1.086210983743970e-02 -1.886511780124778e-17
1.899143679484583e-03 -1.290658787563804e-03 -7.956365838862813e-03 -6.071532165918825e-18 -3.766657654538279e-03 1.328147661294743e-18
3.374480866208278e-03 2.961209392267807e-04 -6.610291754212561e-03 -2.385244779468110e-18 -5.872047045096078e-03 -1.897353801849633e-19
3.842432587308850e-02 1.150965639792737e-02 -3.105785508621102e-02 2.590939668566770e-02 9.495003967761539e-03 1.162713980858805e-05
1.677603373651840e-02 5.369699809443124e-03 -1.387186958105097e-02 1.036127902407886e-02 4.628709166544231e-03 -2.506645668079218e-03
2.642442759265509e-03 -4.435001802605051e-04 -6.826701829549547e-03 -4.336771060372458e-03 -5.674469119663749e-04 -4.087788862818144e-04
1.216193410153356e-03 -1.450641154332427e-03 -6.853313944483663e-03 -7.303061724899449e-03 -2.855321252758432e-03 3.963239735209345e-05
3.703338414733558e-02 1.230814032626066e-02 -3.144422850703404e-02 1.994931997373328e-17 1.086210983743970e-02 -1.886511780124778e-17
1.484452418018601e-02 5.026882761859395e-03 -1.269833206837942e-02 4.336808689942018e-18 1.149425705706589e-03 5.908901840045999e-18
3.315721355053977e-03 -2.735841773538974e-04 -7.868528698691268e-03 -6.505213034913027e-18 9.292813416748286e-04 -2.907017074976759e-18
1.899143679484583e-03 -1.290658787563804e-03 -7.956365838862813e-03 -6.071532165918825e-18 -3.766657654538279e-03 1.328147661294743e-18
1.677603373651840e-02 5.369699809443124e-03 -1.387186958105097e-02 1.036127902407886e-02 4.628709166544231e-03 -2.506645668079218e-03
-3.335308112689334e-03 -1.042310414171561e-03 2.681988586136960e-03 -2.078688000422376e-03 -2.634959984927684e-03 5.404097736613338e-04
2.323941492598101e-03 3.773394647114880e-04 -3.839243150803107e-03 -8.737331533303535e-04 1.387766921142440e-03 -5.547295167454419e-04
2.642442759265509e-03 -4.435001802605051e-04 -6.826701829549547e-03 -4.336771060372458e-03 -5.674469119663749e-04 -4.087788862818144e-04
1.484452418018601e-02 5.026882761859395e-03 -1.269833206837942e-02 4.336808689942018e-18 1.149425705706589e-03 5.908901840045999e-18
-2.962344181538829e-03 -9.655584647961644e-04 2.471868267882381e-03 -9.215718466126788e-18 -1.812613178162978e-03 5.082197683525802e-19
2.437717918083942e-03 3.556043151814623e-04 -4.115651789165999e-03 8.809142651444724e-19 1.868519399871968e-03 -7.123547086408666e-19
3.315721355053977e-03 -2.735841773538974e-04 -7.868528698691268e-03 -6.505213034913027e-18 9.292813416748286e-04 -2.907017074976759e-18
-3.335308112689334e-03 -1.042310414171561e-03 2.681988586136960e-03 -2.078688000422376e-03 -2.634959984927684e-03 5.404097736613338e-04
0.000000000000000e+00 0.000000000000000e+00 0.000000000000000e+00 0.000000000000000e+00 0.000000000000000e+00 0.000000000000000e+00
4.352361791160132e-04 3.824467205652174e-05 -7.881010396082304e-04 -2.879056441823134e-04 3.807764805495073e-05 -1.110256850973542e-04
2.323941492598101e-03 3.773394647114880e-04 -3.839243150803107e-03 -8.737331533303535e-04 1.387766921142440e-03 -5.547295167454419e-04
-2.962344181538829e-03 -9.655584647961644e-04 2.471868267882381e-03 -9.215718466126788e-18 -1.812613178162978e-03 5.082197683525802e-19
0.000000000000000e+00 0.000000000000000e+00 0.000000000000000e+00 0.000000000000000e+00 0.000000000000000e+00 0.000000000000000e+00
4.613643240297760e-04 2.914728142121220e-05 -8.245997657613762e-04 3.848917712323541e-18 1.762072600288490e-04 -1.036768327439264e-18
2.437717918083942e-03 3.556043151814623e-04 -4.115651789165999e-03 8.809142651444724e-19 1.868519399871968e-03 -7.123547086408666e-19
3.004361083363929e-03 1.327147425813874e-03 -7.576122654677019e-03 -8.023987802496488e-04 -4.034246456334662e-03 8.713002424656053e-03
1.890872212323295e-03 -2.224962287681828e-05 -4.627010557689991e-03 -2.539397094907558e-03 -4.375611227538673e-03 -1.210635814732851e-03
-2.186985437222066e-02 -2.770612141833473e-03 4.110958171897414e-02 1.482927432800439e-02 2.804574517590003e-02 4.353471961231374e-03
-1.976293418147168e-02 -9.053914126572644e-03 5.441305119296448e-02 7.331837654478445e-03 2.945254669458107e-02 -6.281416309062013e-02
1.920857067220993e-03 7.461370260417852e-04 -5.172433471596858e-03 7.589415207398531e-19 -7.205258811674472e-03 0.000000000000000e+00
3.374480866208278e-03 2.961209392267807e-04 -6.610291754212561e-03 -2.385244779468110e-18 -5.872047045096078e-03 -1.897353801849633e-19
-2.630053901492692e-02 -2.863837032528976e-03 5.039199119083503e-02 1.734723475976807e-18 3.767997920786270e-02 -1.951563910473908e-18
-1.474159288557654e-02 -5.708510607454583e-03 3.892630225960163e-02 -2.602085213965211e-18 5.401539305968658e-02 -8.673617379884035e-19
1.890872212323295e-03 -2.224962287681828e-05 -4.627010557689991e-03 -2.539397094907558e-03 -4.375611227538673e-03 -1.210635814732851e-03
1.216193410153356e-03 -1.450641154332427e-03 -6.853313944483663e-03 -7.303061724899449e-03 -2.855321252758432e-03 3.963239735209345e-05
-4.750211707013405e-02 -6.819234148893957e-04 8.221168676827761e-02 2.860139813060500e-02 1.181740400668984e-02 -3.074473808961304e-04
-2.186985437222066e-02 -2.770612141833473e-03 4.110958171897414e-02 1.482927432800439e-02 2.804574517590003e-02 4.353471961231374e-03
3.374480866208278e-03 2.961209392267807e-04 -6.610291754212561e-03 -2.385244779468110e-18 -5.872047045096078e-03 -1.897353801849633e-19
1.899143679484583e-03 -1.290658787563804e-03 -7.956365838862813e-03 -6.071532165918825e-18 -3.766657654538279e-03 1.328147661294743e-18
-5.120878555275511e-02 -2.674531985413935e-03 9.083135161551681e-02 2.081668171172169e-17 1.725260564547046e-02 8.510987054011210e-18
-2.630053901492692e-02 -2.863837032528976e-03 5.039199119083503e-02 1.734723475976807e-18 3.767997920786270e-02 -1.951563910473908e-18
1.216193410153356e-03 -1.450641154332427e-03 -6.853313944483663e-03 -7.303061724899449e-03 -2.855321252758432e-03 3.963239735209345e-05
2.642442759265509e-03 -4.435001802605051e-04 -6.826701829549547e-03 -4.336771060372458e-03 -5.674469119663749e-04 -4.087788862818144e-04
-3.649949500386115e-02 -2.059369397646801e-03 6.482706573305561e-02 2.200882085212989e-02 -3.932277544310726e-04 5.557812813409523e-03
-4.750211707013405e-02 -6.819234148893957e-04 8.221168676827761e-02 2.860139813060500e-02 1.181740400668984e-02 -3.074473808961304e-04
1.899143679484583e-03 -1.290658787563804e-03 -7.956365838862813e-03 -6.071532165918825e-18 -3.766657654538279e-03 1.328147661294743e-18
3.315721355053977e-03 -2.735841773538974e-04 -7.868528698691268e-03 -6.505213034913027e-18 9.292813416748286e-04 -2.907017074976759e-18
-3.959340530179116e-02 -2.984822661796034e-03 7.142982983703872e-02 4.510281037539698e-17 -8.085676069019063e-03 1.615461237003402e-17
-5.120878555275511e-02 -2.674531985413935e-03 9.083135161551681e-02 2.081668171172169e-17 1.725260564547046e-02 8.510987054011210e-18
2.642442759265509e-03 -4.435001802605051e-04 -6.826701829549547e-03 -4.336771060372458e-03 -5.674469119663749e-04 -4.087788862818144e-04
2.323941492598101e-03 3.773394647114880e-04 -3.839243150803107e-03 -8.737331533303535e-04 1.387766921142440e-03 -5.547295167454419e-04
-1.401082733569780e-02 -1.774189693836673e-03 2.597451241667907e-02 8.600321041394873e-03 -7.723473332606355e-03 3.600147708242907e-03
-3.649949500386115e-02 -2.059369397646801e-03 6.482706573305561e-02 2.200882085212989e-02 -3.932277544310726e-04 5.557812813409523e-03
3.315721355053977e-03 -2.735841773538974e-04 -7.868528698691268e-03 -6.505213034913027e-18 9.292813416748286e-04 -2.907017074976759e-18
2.437717918083942e-03 3.556043151814623e-04 -4.115651789165999e-03 8.809142651444724e-19 1.868519399871968e-03 -7.123547086408666e-19
-1.523303006808178e-02 -1.688708278499744e-03 2.824777489897615e-02 1.626303258728257e-18 -1.213420549233761e-02 4.939896148387080e-18
-3.959340530179116e-02 -2.984822661796034e-03 7.142982983703872e-02 4.510281037539698e-17 -8.085676069019063e-03 1.615461237003402e-17
2.323941492598101e-03 3.773394647114880e-04 -3.839243150803107e-03 -8.737331533303535e-04 1.387766921142440e-03 -5.547295167454419e-04
4.352361791160132e-04 3.824467205652174e-05 -7.881010396082304e-04 -2.879056441823134e-04 3.807764805495073e-05 -1.110256850973542e-04
-3.248647067506221e-03 -2.854621184674977e-04 5.882466242631536e-03 2.148956983748482e-03 -2.842154343476046e-04 8.287069954569372e-04
-1.401082733569780e-02 -1.774189693836673e-03 2.597451241667907e-02 8.600321041394873e-03 -7.723473332606355e-03 3.600147708242907e-03
2.437717918083942e-03 3.556043151814623e-04 -4.115651789165999e-03 8.809142651444724e-19 1.868519399871968e-03 -7.123547086408666e-19
4.613643240297760e-04 2.914728142121220e-05 -8.245997657613762e-04 3.848917712323541e-18 1.762072600288490e-04 -1.036768327439264e-18
-3.443670196157590e-03 -2.175582703329447e-04 6.154896443461704e-03 -2.883977778811442e-17 -1.315228894180330e-03 7.752045533271357e-18
-1.523303006808178e-02 -1.688708278499744e-03 2.824777489897615e-02 1.626303258728257e-18 -1.213420549233761e-02 4.939896148387080e-18
4.041205476835570e-04 1.392680262620129e-04 -3.187332300629259e-04 -3.008661028647275e-18 -2.346091259816072e-04 -1.084202172485504e-19
1.113070931210257e-03 6.535602517702525e-04 -1.052101831685250e-03 1.539567084929416e-17 6.149576625603822e-03 3.171291354520100e-18
3.374480866208278e-03 2.961209392267807e-04 -6.610291754212561e-03 -2.385244779468110e-18 -5.872047045096078e-03 -1.897353801849633e-19
1.920857067220993e-03 7.461370260417852e-04 -5.172433471596858e-03 7.589415207398531e-19 -7.205258811674472e-03 0.000000000000000e+00
-2.661922233322046e-03 -8.520491179706118e-04 2.135898150292036e-03 1.342651622832481e-03 6.594787960102626e-04 2.220572379954332e-03
7.756192038199381e-03 2.936685587884578e-03 -6.573104742060951e-03 -4.125043629571321e-03 4.614261654786341e-03 -4.682836778859755e-03
1.890872212323277e-03 -2.224962287682760e-05 -4.627010557689970e-03 2.539397094907565e-03 -4.375611227538678e-03 1.210635814732858e-03
3.004361083363929e-03 1.327147425813869e-03 -7.576122654677014e-03 8.023987802496452e-04 -4.034246456334648e-03 -8.713002424656054e-03
1.113070931210257e-03 6.535602517702525e-04 -1.052101831685250e-03 1.539567084929416e-17 6.149576625603822e-03 3.171291354520100e-18
3.703338414733558e-02 1.230814032626066e-02 -3.144422850703404e-02 1.994931997373328e-17 1.086210983743970e-02 -1.886511780124778e-17
1.899143679484583e-03 -1.290658787563804e-03 -7.956365838862813e-03 -6.071532165918825e-18 -3.766657654538279e-03 1.328147661294743e-18
3.374480866208278e-03 2.961209392267807e-04 -6.610291754212561e-03 -2.385244779468110e-18 -5.872047045096078e-03 -1.897353801849633e-19
7.756192038199381e-03 2.936685587884578e-03 -6.573104742060951e-03 -4.125043629571321e-03 4.614261654786341e-03 -4.682836778859755e-03
3.842432587308859e-02 1.150965639792744e-02 -3.105785508621111e-02 -2.590939668566771e-02 9.495003967761508e-03 -1.162713980862535e-05
1.216193410153348e-03 -1.450641154332446e-03 -6.853313944483648e-03 7.303061724899437e-03 -2.855321252758442e-03 -3.963239735209334e-05
1.890872212323277e-03 -2.224962287682760e-05 -4.627010557689970e-03 2.539397094907565e-03 -4.375611227538678e-03 1.210635814732858e-03
3.703338414733558e-02 1.230814032626066e-02 -3.144422850703404e-02 1.994931997373328e-17 1.086210983743970e-02 -1.886511780124778e-17
1.484452418018601e-02 5.026882761859395e-03 -1.269833206837942e-02 4.336808689942018e-18 1.149425705706589e-03 5.908901840045999e-18
3.315721355053977e-03 -2.735841773538974e-04 -7.868528698691268e-03 -6.505213034913027e-18 9.292813416748286e-04 -2.907017074976759e-18
1.899143679484583e-03 -1.290658787563804e-03 -7.956365838862813e-03 -6.071532165918825e-18 -3.766657654538279e-03 1.328147661294743e-18
3.842432587308859e-02 1.150965639792744e-02 -3.105785508621111e-02 -2.590939668566771e-02 9.495003967761508e-03 -1.162713980862535e-05
1.677603373651831e-02 5.369699809443102e-03 -1.387186958105094e-02 -1.036127902407889e-02 4.628709166544259e-03 2.506645668079194e-03
2.642442759265498e-03 -4.435001802604954e-04 -6.826701829549519e-03 4.336771060372445e-03 -5.674469119663775e-04 4.087788862818063e-04
1.216193410153348e-03 -1.450641154332446e-03 -6.853313944483648e-03 7.303061724899437e-03 -2.855321252758442e-03 -3.963239735209334e-05
1.484452418018601e-02 5.026882761859395e-03 -1.269833206837942e-02 4.336808689942018e-18 1.149425705706589e-03 5.908901840045999e-18
-2.962344181538829e-03 -9.655584647961644e-04 2.471868267882381e-03 -9.215718466126788e-18 -1.812613178162978e-03 5.082197683525802e-19
2.437717918083942e-03 3.556043151814623e-04 -4.115651789165999e-03 8.809142651444724e-19 1.868519399871968e-03 -7.123547086408666e-19
3.315721355053977e-03 -2.735841773538974e-04 -7.868528698691268e-03 -6.505213034913027e-18 9.292813416748286e-04 -2.907017074976759e-18
1.677603373651831e-02 5.369699809443102e-03 -1.387186958105094e-02 -1.036127902407889e-02 4.628709166544259e-03 2.506645668079194e-03
-3.335308112689328e-03 -1.042310414171562e-03 2.681988586136966e-03 2.078688000422383e-03 -2.634959984927688e-03 -5.404097736613264e-04
2.323941492598105e-03 3.773394647114858e-04 -3.839243150803110e-03 8.737331533303633e-04 1.387766921142434e-03 5.547295167454396e-04
2.642442759265498e-03 -4.435001802604954e-04 -6.826701829549519e-03 4.336771060372445e-03 -5.674469119663775e-04 4.087788862818063e-04
-2.962344181538829e-03 -9.655584647961644e-04 2.471868267882381e-03 -9.215718466126788e-18 -1.812613178162978e-03 5.082197683525802e-19
0.000000000000000e+00 0.000000000000000e+00 0.000000000000000e+00 0.000000000000000e+00 0.000000000000000e+00 0.000000000000000e+00
4.613643240297760e-04 2.914728142121220e-05 -8.245997657613762e-04 3.848917712323541e-18 1.762072600288490e-04 -1.036768327439264e-18
2.437717918083942e-03 3.556043151814623e-04 -4.115651789165999e-03 8.809142651444724e-19 1.868519399871968e-03 -7.123547086408666e-19
-3.335308112689328e-03 -1.042310414171562e-03 2.681988586136966e-03 2.078688000422383e-03 -2.634959984927688e-03 -5.404097736613264e-04
0.000000000000000e+00 0.000000000000000e+00 0.000000000000000e+00 0.000000000000000e+00 0.000000000000000e+00 0.000000000000000e+00
4.352361791160361e-04 3.824467205652275e-05 -7.881010396082666e-04 2.879056441823128e-04 3.807764805495596e-05 1.110256850973605e-04
2.323941492598105e-03 3.773394647114858e-04 -3.839243150803110e-03 8.737331533303633e-04 1.387766921142434e-03 5.547295167454396e-04
1.920857067220993e-03 7.461370260417852e-04 -5.172433471596858e-03 7.589415207398531e-19 -7.205258811674472e-03 0.000000000000000e+00
3.374480866208278e-03 2.961209392267807e-04 -6.610291754212561e-03 -2.385244779468110e-18 -5.872047045096078e-03 -1.897353801849633e-19
-2.630053901492692e-02 -2.863837032528976e-03 5.039199119083503e-02 1.734723475976807e-18 3.767997920786270e-02 -1.951563910473908e-18
-1.474159288557654e-02 -5.708510607454583e-03 3.892630225960163e-02 -2.602085213965211e-18 5.401539305968658e-02 -8.673617379884035e-19
3.004361083363929e-03 1.327147425813869e-03 -7.576122654677014e-03 8.023987802496452e-04 -4.034246456334648e-03 -8.713002424656054e-03
1.890872212323277e-03 -2.224962287682760e-05 -4.627010557689970e-03 2.539397094907565e-03 -4.375611227538678e-03 1.210635814732858e-03
-2.186985437222065e-02 -2.770612141833443e-03 4.110958171897409e-02 -1.482927432800436e-02 2.804574517590000e-02 -4.353471961231390e-03
-1.976293418147167e-02 -9.053914126572608e-03 5.441305119296440e-02 -7.331837654478424e-03 2.945254669458094e-02 6.281416309062010e-02
3.374480866208278e-03 2.961209392267807e-04 -6.610291754212561e-03 -2.385244779468110e-18 -5.872047045096078e-03 -1.897353801849633e-19
1.899143679484583e-03 -1.290658787563804e-03 -7.956365838862813e-03 -6.071532165918825e-18 -3.766657654538279e-03 1.328147661294743e-18
-5.120878555275511e-02 -2.674531985413935e-03 9.083135161551681e-02 2.081668171172169e-17 1.725260564547046e-02 8.510987054011210e-18
-2.630053901492692e-02 -2.863837032528976e-03 5.039199119083503e-02 1.734723475976807e-18 3.767997920786270e-02 -1.951563910473908e-18
1.890872212323277e-03 -2.224962287682760e-05 -4.627010557689970e-03 2.539397094907565e-03 -4.375611227538678e-03 1.210635814732858e-03
1.216193410153348e-03 -1.450641154332446e-03 -6.853313944483648e-03 7.303061724899437e-03 -2.855321252758442e-03 -3.963239735209334e-05
-4.750211707013409e-02 -6.819234148893213e-04 8.221168676827761e-02 -2.860139813060491e-02 1.181740400668993e-02 3.074473808961694e-04
-2.186985437222065e-02 -2.770612141833443e-03 4.110958171897409e-02 -1.482927432800436e-02 2.804574517590000e-02 -4.353471961231390e-03
1.899143679484583e-03 -1.290658787563804e-03 -7.956365838862813e-03 -6.071532165918825e-18 -3.766657654538279e-03 1.328147661294743e-18
3.315721355053977e-03 -2.735841773538974e-04 -7.868528698691268e-03 -6.505213034913027e-18 9.292813416748286e-04 -2.907017074976759e-18
-3.959340530179116e-02 -2.984822661796034e-03 7.142982983703872e-02 4.510281037539698e-17 -8.085676069019063e-03 1.615461237003402e-17
-5.120878555275511e-02 -2.674531985413935e-03 9.083135161551681e-02 2.081668171172169e-17 1.725260564547046e-02 8.510987054011210e-18
1.216193410153348e-03 -1.450641154332446e-03 -6.853313944483648e-03 7.303061724899437e-03 -2.855321252758442e-03 -3.963239735209334e-05
2.642442759265498e-03 -4.435001802604954e-04 -6.826701829549519e-03 4.336771060372445e-03 -5.674469119663775e-04 4.087788862818063e-04
-3.649949500386099e-02 -2.059369397646854e-03 6.482706573305538e-02 -2.200882085212976e-02 -3.932277544310935e-04 -5.557812813409439e-03
-4.750211707013409e-02 -6.819234148893213e-04 8.221168676827761e-02 -2.860139813060491e-02 1.181740400668993e-02 3.074473808961694e-04
3.315721355053977e-03 -2.735841773538974e-04 -7.868528698691268e-03 -6.505213034913027e-18 9.292813416748286e-04 -2.907017074976759e-18
2.437717918083942e-03 3.556043151814623e-04 -4.115651789165999e-03 8.809142651444724e-19 1.868519399871968e-03 -7.123547086408666e-19
-1.523303006808178e-02 -1.688708278499744e-03 2.824777489897615e-02 1.626303258728257e-18 -1.213420549233761e-02 4.939896148387080e-18
-3.959340530179116e-02 -2.984822661796034e-03 7.142982983703872e-02 4.510281037539698e-17 -8.085676069019063e-03 1.615461237003402e-17
2.642442759265498e-03 -4.435001802604954e-04 -6.826701829549519e-03 4.336771060372445e-03 -5.674469119663775e-04 4.087788862818063e-04
2.323941492598105e-03 3.773394647114858e-04 -3.839243150803110e-03 8.737331533303633e-04 1.387766921142434e-03 5.547295167454396e-04
-1.401082733569785e-02 -1.774189693836656e-03 2.597451241667910e-02 -8.600321041394956e-03 -7.723473332606309e-03 -3.600147708242898e-03
-3.649949500386099e-02 -2.059369397646854e-03 6.482706573305538e-02 -2.200882085212976e-02 -3.932277544310935e-04 -5.557812813409439e-03
2.437717918083942e-03 3.556043151814623e-04 -4.115651789165999e-03 8.809142651444724e-19 1.868519399871968e-03 -7.123547086408666e-19
4.613643240297760e-04 2.914728142121220e-05 -8.245997657613762e-04 3.848917712323541e-18 1.762072600288490e-04 -1.036768327439264e-18
-3.443670196157590e-03 -2.175582703329447e-04 6.154896443461704e-03 -2.883977778811442e-17 -1.315228894180330e-03 7.752045533271357e-18
-1.523303006808178e-02 -1.688708278499744e-03 2.824777489897615e-02 1.626303258728257e-18 -1.213420549233761e-02 4.939896148387080e-18
2.323941492598105e-03 3.773394647114858e-04 -3.839243150803110e-03 8.737331533303633e-04 1.387766921142434e-03 5.547295167454396e-04
4.352361791160361e-04 3.824467205652275e-05 -7.881010396082666e-04 2.879056441823128e-04 3.807764805495596e-05 1.110256850973605e-04
-3.248647067506391e-03 -2.854621184675053e-04 5.882466242631809e-03 -2.148956983748478e-03 -2.842154343476438e-04 -8.287069954569843e-04
-1.401082733569785e-02 -1.774189693836656e-03 2.597451241667910e-02 -8.600321041394956e-03 -7.723473332606309e-03 -3.600147708242898e-03
        </DataArray>
  </PointData>
  <CellData>
        <DataArray type="Float64" Name="element_GL_strains_xyz" NumberOfComponents="6" format="ascii">
2.187231344900837e-02 7.912499055142515e-03 -3.691379502391533e-02 2.415949856394774e-03 9.760729609404061e-03 1.016893433577103e-02
5.025966541335426e-02 1.663402506322188e-02 -6.625214454486439e-02 5.177800884963587e-03 1.067011526650768e-02 2.224170253223689e-03
5.236413933534340e-02 1.640895915520332e-02 -6.613401272614901e-02 4.369284138285370e-03 1.425332396240492e-02 -1.970690795975704e-03
4.270872155520865e-02 1.300487099078097e-02 -5.519785541335599e-02 2.226415832485873e-03 1.547479361165041e-02 -1.438019997818495e-03
3.435530095848494e-02 9.155142479600177e-03 -4.413791878156696e-02 1.010616487400357e-03 1.357216775482995e-02 -2.417509268790890e-04
-2.595523872110740e-02 -8.010264503993680e-03 4.421027928396645e-02 -7.097233164152939e-04 1.407180756322309e-02 -1.188117737799531e-02
-5.890887581050339e-02 -1.485469532436180e-02 9.110340094642277e-02 -2.545320969712263e-03 1.440043613898316e-02 -1.982492377377615e-03
-6.143699544402804e-02 -1.339818286694420e-02 9.053478937268482e-02 -3.265759169973262e-03 1.100757175655174e-02 2.079768573980025e-03
-4.937556395788276e-02 -1.259669760267381e-02 7.017827160206322e-02 -2.258464986631247e-03 7.590930132273615e-03 2.473117890247484e-03
-3.644349571013794e-02 -1.085281274108186e-02 4.799399421639588e-02 -1.329278898430742e-03 7.464261018149230e-03 1.356962753127449e-03
2.187231344900838e-02 7.912499055142531e-03 -3.691379502391537e-02 -2.415949856394803e-03 9.760729609404033e-03 -1.016893433577109e-02
5.025966541335428e-02 1.663402506322192e-02 -6.625214454486443e-02 -5.177800884963616e-03 1.067011526650768e-02 -2.224170253223682e-03
5.236413933534341e-02 1.640895915520335e-02 -6.613401272614901e-02 -4.369284138285367e-03 1.425332396240494e-02 1.970690795975658e-03
4.270872155520865e-02 1.300487099078106e-02 -5.519785541335606e-02 -2.226415832485822e-03 1.547479361165040e-02 1.438019997818455e-03
3.435530095848487e-02 9.155142479600384e-03 -4.413791878156698e-02 -1.010616487400417e-03 1.357216775482992e-02 2.417509268790855e-04
-2.595523872110740e-02 -8.010264503993657e-03 4.421027928396641e-02 7.097233164152955e-04 1.407180756322305e-02 1.188117737799533e-02
-5.890887581050338e-02 -1.485469532436175e-02 9.110340094642273e-02 2.545320969712266e-03 1.440043613898315e-02 1.982492377377629e-03
-6.143699544402803e-02 -1.339818286694419e-02 9.053478937268480e-02 3.265759169973267e-03 1.100757175655178e-02 -2.079768573980048e-03
-4.937556395788278e-02 -1.259669760267390e-02 7.017827160206322e-02 2.258464986631271e-03 7.590930132273592e-03 -2.473117890247452e-03
-3.644349571013795e-02 -1.085281274108187e-02 4.799399421639588e-02 1.329278898430754e-03 7.464261018149198e-03 -1.356962753127464e-03
        </DataArray>
        <DataArray type="Float64" Name="element_cauchy_stresses_xyz" NumberOfComponents="6" format="ascii">
-4.574336539251918e-01 -5.491468920696742e-01 -8.477537000161162e-01 1.556086710405833e-02 6.630971836593003e-02 6.728804307617336e-02
5.992825422571714e-02 -1.349544021763495e-01 -6.376423704174897e-01 3.271228044297558e-02 7.118550617550135e-02 1.319852113090484e-02
1.502171557683048e-01 -5.177374943435746e-02 -5.394174563934543e-01 2.734402456005582e-02 8.417439290781380e-02 -1.124932840601561e-02
1.813429397610722e-01 -4.866241703775545e-03 -4.415004547959609e-01 1.438670998818993e-02 9.704662378971451e-02 -9.004970789108290e-03
1.812540326804242e-01 1.098269160687851e-02 -3.491055601577644e-01 6.828489779732149e-03 9.170383618128347e-02 -1.633452208642493e-03
4.315266603576636e-01 5.438408774039969e-01 8.477537000161159e-01 -4.934421727216937e-03 7.619028163407020e-02 -6.682601263040640e-02
-1.537624089299558e-02 1.680044157240832e-01 6.376423704174889e-01 -1.497505413344668e-02 7.131449382449871e-02 -9.995805534089941e-03
-1.333322354050692e-01 7.296675870945787e-02 5.394174563934544e-01 -1.813158986546266e-02 5.832560709218614e-02 9.783788157522660e-03
-1.821218555039783e-01 4.409938794879237e-03 4.415004547959669e-01 -1.337461276543440e-02 4.545337621028517e-02 1.384168516508826e-02
-2.129406511414094e-01 -4.283201131558469e-02 3.491055601577536e-01 -8.904257558414045e-03 5.079616381871743e-02 9.044217273569726e-03
-4.574336539251925e-01 -5.491468920696749e-01 -8.477537000161171e-01 -1.556086710405852e-02 6.630971836592983e-02 -6.728804307617378e-02
5.992825422571738e-02 -1.349544021763490e-01 -6.376423704174896e-01 -3.271228044297576e-02 7.118550617550135e-02 -1.319852113090480e-02
1.502171557683069e-01 -5.177374943435503e-02 -5.394174563934522e-01 -2.734402456005579e-02 8.417439290781389e-02 1.124932840601535e-02
1.813429397610736e-01 -4.866241703773380e-03 -4.415004547959598e-01 -1.438670998818959e-02 9.704662378971439e-02 9.004970789108037e-03
1.812540326804352e-01 1.098269160689136e-02 -3.491055601577528e-01 -6.828489779732541e-03 9.170383618128325e-02 1.633452208642470e-03
4.315266603576629e-01 5.438408774039962e-01 8.477537000161151e-01 4.934421727216945e-03 7.619028163406998e-02 6.682601263040649e-02
-1.537624089299507e-02 1.680044157240839e-01 6.376423704174891e-01 1.497505413344666e-02 7.131449382449861e-02 9.995805534090010e-03
-1.333322354050696e-01 7.296675870945755e-02 5.394174563934540e-01 1.813158986546259e-02 5.832560709218636e-02 -9.783788157522830e-03
-1.821218555039866e-01 4.409938794870590e-03 4.415004547959591e-01 1.337461276543452e-02 4.545337621028504e-02 -1.384168516508810e-02
-2.129406511414113e-01 -4.283201131558660e-02 3.491055601577516e-01 8.904257558414137e-03 5.079616381871722e-02 -9.044217273569815e-03
        </DataArray>
        <DataArray type="Float64" Name="element_gid" format="ascii">
0.000000000000000e+00
1.000000000000000e+00
2.000000000000000e+00
3.000000000000000e+00
4.000000000000000e+00
1.000000000000000e+01
1.100000000000000e+01
1.200000000000000e+01
1.300000000000000e+01
1.400000000000000e+01
2.000000000000000e+01
2.100000000000000e+01
2.200000000000000e+01
2.300000000000000e+01
2.400000000000000e+01
3.000000000000000e+01
3.100000000000000e+01
3.200000000000000e+01
3.300000000000000e+01
3.400000000000000e+01
        </DataArray>
        <DataArray type="Float64" Name="element_owner" format="ascii">
1.000000000000000e+00
1.000000000000000e+00
1.000000000000000e+00
1.000000000000000e+00
1.000000000000000e+00
1.000000000000000e+00
1.000000000000000e+00
1.000000000000000e+00
1.000000000000000e+00
1.000000000000000e+00
1.000000000000000e+00
1.000000000000000e+00
1.000000000000000e+00
1.000000000000000e+00
1.000000000000000e+00
1.000000000000000e+00
1.000000000000000e+00
1.000000000000000e+00
1.000000000000000e+00
1.000000000000000e+00
        </DataArray>
      </CellData>

    </Piece>
  </UnstructuredGrid>
</VTKFile>
