<?xml version="1.0" ?> 
<!-- 
# vtk DataFile Version 3.0
-->
<VTKFile type="UnstructuredGrid" version="0.1" compressor="vtkZLibDataCompressor" byte_order="LittleEndian">
  <UnstructuredGrid>
    <FieldData>
      <DataArray type="Float64" Name="TIME" NumberOfTuples="1" format="ascii">
9.500000000000000e+00 
      </DataArray>
    </FieldData>

    <Piece NumberOfPoints="160" NumberOfCells="20" >
      <Points>
        <DataArray type="Float64" NumberOfComponents="3" format="ascii">
-1.000000000000000e+00 -1.000000000000000e+00 0.000000000000000e+00
-1.000000000000000e+00 -1.000000000000000e+00 -1.000000000000000e+00
-1.000000000000000e+00 0.000000000000000e+00 -1.000000000000000e+00
-1.000000000000000e+00 0.000000000000000e+00 0.000000000000000e+00
0.000000000000000e+00 -1.000000000000000e+00 0.000000000000000e+00
0.000000000000000e+00 -1.000000000000000e+00 -1.000000000000000e+00
0.000000000000000e+00 0.000000000000000e+00 -1.000000000000000e+00
0.000000000000000e+00 0.000000000000000e+00 0.000000000000000e+00
-1.000000000000000e+00 -1.000000000000000e+00 -1.000000000000000e+00
-1.000000000000000e+00 -1.000000000000000e+00 -2.000000000000000e+00
-1.000000000000000e+00 0.000000000000000e+00 -2.000000000000000e+00
-1.000000000000000e+00 0.000000000000000e+00 -1.000000000000000e+00
0.000000000000000e+00 -1.000000000000000e+00 -1.000000000000000e+00
0.000000000000000e+00 -1.000000000000000e+00 -2.000000000000000e+00
0.000000000000000e+00 0.000000000000000e+00 -2.000000000000000e+00
0.000000000000000e+00 0.000000000000000e+00 -1.000000000000000e+00
-1.000000000000000e+00 -1.000000000000000e+00 -2.000000000000000e+00
-1.000000000000000e+00 -1.000000000000000e+00 -3.000000000000000e+00
-1.000000000000000e+00 0.000000000000000e+00 -3.000000000000000e+00
-1.000000000000000e+00 0.000000000000000e+00 -2.000000000000000e+00
0.000000000000000e+00 -1.000000000000000e+00 -2.000000000000000e+00
0.000000000000000e+00 -1.000000000000000e+00 -3.000000000000000e+00
0.000000000000000e+00 0.000000000000000e+00 -3.000000000000000e+00
0.000000000000000e+00 0.000000000000000e+00 -2.000000000000000e+00
-1.000000000000000e+00 -1.000000000000000e+00 -3.000000000000000e+00
-1.000000000000000e+00 -1.000000000000000e+00 -4.000000000000000e+00
-1.000000000000000e+00 0.000000000000000e+00 -4.000000000000000e+00
-1.000000000000000e+00 0.000000000000000e+00 -3.000000000000000e+00
0.000000000000000e+00 -1.000000000000000e+00 -3.000000000000000e+00
0.000000000000000e+00 -1.000000000000000e+00 -4.000000000000000e+00
0.000000000000000e+00 0.000000000000000e+00 -4.000000000000000e+00
0.000000000000000e+00 0.000000000000000e+00 -3.000000000000000e+00
-1.000000000000000e+00 -1.000000000000000e+00 -4.000000000000000e+00
-1.000000000000000e+00 -1.000000000000000e+00 -5.000000000000000e+00
-1.000000000000000e+00 0.000000000000000e+00 -5.000000000000000e+00
-1.000000000000000e+00 0.000000000000000e+00 -4.000000000000000e+00
0.000000000000000e+00 -1.000000000000000e+00 -4.000000000000000e+00
0.000000000000000e+00 -1.000000000000000e+00 -5.000000000000000e+00
0.000000000000000e+00 0.000000000000000e+00 -5.000000000000000e+00
0.000000000000000e+00 0.000000000000000e+00 -4.000000000000000e+00
-1.000000000000000e+00 0.000000000000000e+00 0.000000000000000e+00
-1.000000000000000e+00 0.000000000000000e+00 -1.000000000000000e+00
-1.000000000000000e+00 1.000000000000000e+00 -1.000000000000000e+00
-1.000000000000000e+00 1.000000000000000e+00 0.000000000000000e+00
0.000000000000000e+00 0.000000000000000e+00 0.000000000000000e+00
0.000000000000000e+00 0.000000000000000e+00 -1.000000000000000e+00
0.000000000000000e+00 1.000000000000000e+00 -1.000000000000000e+00
0.000000000000000e+00 1.000000000000000e+00 0.000000000000000e+00
-1.000000000000000e+00 0.000000000000000e+00 -1.000000000000000e+00
-1.000000000000000e+00 0.000000000000000e+00 -2.000000000000000e+00
-1.000000000000000e+00 1.000000000000000e+00 -2.000000000000000e+00
-1.000000000000000e+00 1.000000000000000e+00 -1.000000000000000e+00
0.000000000000000e+00 0.000000000000000e+00 -1.000000000000000e+00
0.000000000000000e+00 0.000000000000000e+00 -2.000000000000000e+00
0.000000000000000e+00 1.000000000000000e+00 -2.000000000000000e+00
0.000000000000000e+00 1.000000000000000e+00 -1.000000000000000e+00
-1.000000000000000e+00 0.000000000000000e+00 -2.000000000000000e+00
-1.000000000000000e+00 0.000000000000000e+00 -3.000000000000000e+00
-1.000000000000000e+00 1.000000000000000e+00 -3.000000000000000e+00
-1.000000000000000e+00 1.000000000000000e+00 -2.000000000000000e+00
0.000000000000000e+00 0.000000000000000e+00 -2.000000000000000e+00
0.000000000000000e+00 0.000000000000000e+00 -3.000000000000000e+00
0.000000000000000e+00 1.000000000000000e+00 -3.000000000000000e+00
0.000000000000000e+00 1.000000000000000e+00 -2.000000000000000e+00
-1.000000000000000e+00 0.000000000000000e+00 -3.000000000000000e+00
-1.000000000000000e+00 0.000000000000000e+00 -4.000000000000000e+00
-1.000000000000000e+00 1.000000000000000e+00 -4.000000000000000e+00
-1.000000000000000e+00 1.000000000000000e+00 -3.000000000000000e+00
0.000000000000000e+00 0.000000000000000e+00 -3.000000000000000e+00
0.000000000000000e+00 0.000000000000000e+00 -4.000000000000000e+00
0.000000000000000e+00 1.000000000000000e+00 -4.000000000000000e+00
0.000000000000000e+00 1.000000000000000e+00 -3.000000000000000e+00
-1.000000000000000e+00 0.000000000000000e+00 -4.000000000000000e+00
-1.000000000000000e+00 0.000000000000000e+00 -5.000000000000000e+00
-1.000000000000000e+00 1.000000000000000e+00 -5.000000000000000e+00
-1.000000000000000e+00 1.000000000000000e+00 -4.000000000000000e+00
0.000000000000000e+00 0.000000000000000e+00 -4.000000000000000e+00
0.000000000000000e+00 0.000000000000000e+00 -5.000000000000000e+00
0.000000000000000e+00 1.000000000000000e+00 -5.000000000000000e+00
0.000000000000000e+00 1.000000000000000e+00 -4.000000000000000e+00
0.000000000000000e+00 -1.000000000000000e+00 0.000000000000000e+00
0.000000000000000e+00 -1.000000000000000e+00 -1.000000000000000e+00
0.000000000000000e+00 0.000000000000000e+00 -1.000000000000000e+00
0.000000000000000e+00 0.000000000000000e+00 0.000000000000000e+00
1.000000000000000e+00 -1.000000000000000e+00 0.000000000000000e+00
1.000000000000000e+00 -1.000000000000000e+00 -1.000000000000000e+00
1.000000000000000e+00 0.000000000000000e+00 -1.000000000000000e+00
1.000000000000000e+00 0.000000000000000e+00 0.000000000000000e+00
0.000000000000000e+00 -1.000000000000000e+00 -1.000000000000000e+00
0.000000000000000e+00 -1.000000000000000e+00 -2.000000000000000e+00
0.000000000000000e+00 0.000000000000000e+00 -2.000000000000000e+00
0.000000000000000e+00 0.000000000000000e+00 -1.000000000000000e+00
1.000000000000000e+00 -1.000000000000000e+00 -1.000000000000000e+00
1.000000000000000e+00 -1.000000000000000e+00 -2.000000000000000e+00
1.000000000000000e+00 0.000000000000000e+00 -2.000000000000000e+00
1.000000000000000e+00 0.000000000000000e+00 -1.000000000000000e+00
0.000000000000000e+00 -1.000000000000000e+00 -2.000000000000000e+00
0.000000000000000e+00 -1.000000000000000e+00 -3.000000000000000e+00
0.000000000000000e+00 0.000000000000000e+00 -3.000000000000000e+00
0.000000000000000e+00 0.000000000000000e+00 -2.000000000000000e+00
1.000000000000000e+00 -1.000000000000000e+00 -2.000000000000000e+00
1.000000000000000e+00 -1.000000000000000e+00 -3.000000000000000e+00
1.000000000000000e+00 0.000000000000000e+00 -3.000000000000000e+00
1.000000000000000e+00 0.000000000000000e+00 -2.000000000000000e+00
0.000000000000000e+00 -1.000000000000000e+00 -3.000000000000000e+00
0.000000000000000e+00 -1.000000000000000e+00 -4.000000000000000e+00
0.000000000000000e+00 0.000000000000000e+00 -4.000000000000000e+00
0.000000000000000e+00 0.000000000000000e+00 -3.000000000000000e+00
1.000000000000000e+00 -1.000000000000000e+00 -3.000000000000000e+00
1.000000000000000e+00 -1.000000000000000e+00 -4.000000000000000e+00
1.000000000000000e+00 0.000000000000000e+00 -4.000000000000000e+00
1.000000000000000e+00 0.000000000000000e+00 -3.000000000000000e+00
0.000000000000000e+00 -1.000000000000000e+00 -4.000000000000000e+00
0.000000000000000e+00 -1.000000000000000e+00 -5.000000000000000e+00
0.000000000000000e+00 0.000000000000000e+00 -5.000000000000000e+00
0.000000000000000e+00 0.000000000000000e+00 -4.000000000000000e+00
1.000000000000000e+00 -1.000000000000000e+00 -4.000000000000000e+00
1.000000000000000e+00 -1.000000000000000e+00 -5.000000000000000e+00
1.000000000000000e+00 0.000000000000000e+00 -5.000000000000000e+00
1.000000000000000e+00 0.000000000000000e+00 -4.000000000000000e+00
0.000000000000000e+00 0.000000000000000e+00 0.000000000000000e+00
0.000000000000000e+00 0.000000000000000e+00 -1.000000000000000e+00
0.000000000000000e+00 1.000000000000000e+00 -1.000000000000000e+00
0.000000000000000e+00 1.000000000000000e+00 0.000000000000000e+00
1.000000000000000e+00 0.000000000000000e+00 0.000000000000000e+00
1.000000000000000e+00 0.000000000000000e+00 -1.000000000000000e+00
1.000000000000000e+00 1.000000000000000e+00 -1.000000000000000e+00
1.000000000000000e+00 1.000000000000000e+00 0.000000000000000e+00
0.000000000000000e+00 0.000000000000000e+00 -1.000000000000000e+00
0.000000000000000e+00 0.000000000000000e+00 -2.000000000000000e+00
0.000000000000000e+00 1.000000000000000e+00 -2.000000000000000e+00
0.000000000000000e+00 1.000000000000000e+00 -1.000000000000000e+00
1.000000000000000e+00 0.000000000000000e+00 -1.000000000000000e+00
1.000000000000000e+00 0.000000000000000e+00 -2.000000000000000e+00
1.000000000000000e+00 1.000000000000000e+00 -2.000000000000000e+00
1.000000000000000e+00 1.000000000000000e+00 -1.000000000000000e+00
0.000000000000000e+00 0.000000000000000e+00 -2.000000000000000e+00
0.000000000000000e+00 0.000000000000000e+00 -3.000000000000000e+00
0.000000000000000e+00 1.000000000000000e+00 -3.000000000000000e+00
0.000000000000000e+00 1.000000000000000e+00 -2.000000000000000e+00
1.000000000000000e+00 0.000000000000000e+00 -2.000000000000000e+00
1.000000000000000e+00 0.000000000000000e+00 -3.000000000000000e+00
1.000000000000000e+00 1.000000000000000e+00 -3.000000000000000e+00
1.000000000000000e+00 1.000000000000000e+00 -2.000000000000000e+00
0.000000000000000e+00 0.000000000000000e+00 -3.000000000000000e+00
0.000000000000000e+00 0.000000000000000e+00 -4.000000000000000e+00
0.000000000000000e+00 1.000000000000000e+00 -4.000000000000000e+00
0.000000000000000e+00 1.000000000000000e+00 -3.000000000000000e+00
1.000000000000000e+00 0.000000000000000e+00 -3.000000000000000e+00
1.000000000000000e+00 0.000000000000000e+00 -4.000000000000000e+00
1.000000000000000e+00 1.000000000000000e+00 -4.000000000000000e+00
1.000000000000000e+00 1.000000000000000e+00 -3.000000000000000e+00
0.000000000000000e+00 0.000000000000000e+00 -4.000000000000000e+00
0.000000000000000e+00 0.000000000000000e+00 -5.000000000000000e+00
0.000000000000000e+00 1.000000000000000e+00 -5.000000000000000e+00
0.000000000000000e+00 1.000000000000000e+00 -4.000000000000000e+00
1.000000000000000e+00 0.000000000000000e+00 -4.000000000000000e+00
1.000000000000000e+00 0.000000000000000e+00 -5.000000000000000e+00
1.000000000000000e+00 1.000000000000000e+00 -5.000000000000000e+00
1.000000000000000e+00 1.000000000000000e+00 -4.000000000000000e+00
        </DataArray>
      </Points>

      <Cells>
        <DataArray type="Int32" Name="connectivity" format="ascii">
0 1 2 3 4 5 6 7 8 9 10 11 12 13 14 15 16 17 18 19 20 21 22 23 24 25 26 27 28 29 30 31 32 33 34 35 36 37 38 39 40 41 42 43 44 45 46 47 48 49 50 51 52 53 54 55 56 57 58 59 60 61 62 63 64 65 66 67 68 69 70 71 72 73 74 75 76 77 78 79 80 81 82 83 84 85 86 87 88 89 90 91 92 93 94 95 96 97 98 99 100 101 102 103 104 105 106 107 108 109 110 111 112 113 114 115 116 117 118 119 120 121 122 123 124 125 126 127 128 129 130 131 132 133 134 135 136 137 138 139 140 141 142 143 144 145 146 147 148 149 150 151 152 153 154 155 156 157 158 159 
        </DataArray>
        <DataArray type="Int32" Name="offsets" format="ascii">
8 16 24 32 40 48 56 64 72 80 88 96 104 112 120 128 136 144 152 160 
        </DataArray>
        <DataArray type="UInt8" Name="types" format="ascii">
12 12 12 12 12 12 12 12 12 12 12 12 12 12 12 12 12 12 12 12 
        </DataArray>
      </Cells>

  <PointData>
        <DataArray type="Float64" Name="accumulated_plastic_strain" format="ascii">
0.000000000000000e+00
0.000000000000000e+00
0.000000000000000e+00
-1.573100942178449e-04
0.000000000000000e+00
0.000000000000000e+00
0.000000000000000e+00
-1.670440801551946e-04
0.000000000000000e+00
0.000000000000000e+00
0.000000000000000e+00
0.000000000000000e+00
0.000000000000000e+00
0.000000000000000e+00
0.000000000000000e+00
0.000000000000000e+00
0.000000000000000e+00
0.000000000000000e+00
0.000000000000000e+00
0.000000000000000e+00
0.000000000000000e+00
0.000000000000000e+00
0.000000000000000e+00
0.000000000000000e+00
0.000000000000000e+00
0.000000000000000e+00
0.000000000000000e+00
0.000000000000000e+00
0.000000000000000e+00
0.000000000000000e+00
0.000000000000000e+00
0.000000000000000e+00
0.000000000000000e+00
0.000000000000000e+00
0.000000000000000e+00
0.000000000000000e+00
0.000000000000000e+00
0.000000000000000e+00
0.000000000000000e+00
0.000000000000000e+00
-1.573100942178449e-04
0.000000000000000e+00
0.000000000000000e+00
1.174178528328889e-03
-1.670440801551946e-04
0.000000000000000e+00
0.000000000000000e+00
1.246833988485590e-03
0.000000000000000e+00
0.000000000000000e+00
0.000000000000000e+00
0.000000000000000e+00
0.000000000000000e+00
0.000000000000000e+00
0.000000000000000e+00
0.000000000000000e+00
0.000000000000000e+00
0.000000000000000e+00
0.000000000000000e+00
0.000000000000000e+00
0.000000000000000e+00
0.000000000000000e+00
0.000000000000000e+00
0.000000000000000e+00
0.000000000000000e+00
0.000000000000000e+00
0.000000000000000e+00
0.000000000000000e+00
0.000000000000000e+00
0.000000000000000e+00
0.000000000000000e+00
0.000000000000000e+00
0.000000000000000e+00
0.000000000000000e+00
0.000000000000000e+00
0.000000000000000e+00
0.000000000000000e+00
0.000000000000000e+00
0.000000000000000e+00
0.000000000000000e+00
0.000000000000000e+00
0.000000000000000e+00
0.000000000000000e+00
-1.670440801551946e-04
0.000000000000000e+00
0.000000000000000e+00
0.000000000000000e+00
-1.573100942178533e-04
0.000000000000000e+00
0.000000000000000e+00
0.000000000000000e+00
0.000000000000000e+00
0.000000000000000e+00
0.000000000000000e+00
0.000000000000000e+00
0.000000000000000e+00
0.000000000000000e+00
0.000000000000000e+00
0.000000000000000e+00
0.000000000000000e+00
0.000000000000000e+00
0.000000000000000e+00
0.000000000000000e+00
0.000000000000000e+00
0.000000000000000e+00
0.000000000000000e+00
0.000000000000000e+00
0.000000000000000e+00
0.000000000000000e+00
0.000000000000000e+00
0.000000000000000e+00
0.000000000000000e+00
0.000000000000000e+00
0.000000000000000e+00
0.000000000000000e+00
0.000000000000000e+00
0.000000000000000e+00
0.000000000000000e+00
0.000000000000000e+00
0.000000000000000e+00
-1.670440801551946e-04
0.000000000000000e+00
0.000000000000000e+00
1.246833988485590e-03
-1.573100942178533e-04
0.000000000000000e+00
0.000000000000000e+00
1.174178528328951e-03
0.000000000000000e+00
0.000000000000000e+00
0.000000000000000e+00
0.000000000000000e+00
0.000000000000000e+00
0.000000000000000e+00
0.000000000000000e+00
0.000000000000000e+00
0.000000000000000e+00
0.000000000000000e+00
0.000000000000000e+00
0.000000000000000e+00
0.000000000000000e+00
0.000000000000000e+00
0.000000000000000e+00
0.000000000000000e+00
0.000000000000000e+00
0.000000000000000e+00
0.000000000000000e+00
0.000000000000000e+00
0.000000000000000e+00
0.000000000000000e+00
0.000000000000000e+00
0.000000000000000e+00
0.000000000000000e+00
0.000000000000000e+00
0.000000000000000e+00
0.000000000000000e+00
0.000000000000000e+00
0.000000000000000e+00
0.000000000000000e+00
0.000000000000000e+00
        </DataArray>
        <DataArray type="Float64" Name="displacement" NumberOfComponents="3" format="ascii">
-6.452661330240879e-02 -1.647318628888737e+00 5.708990910510653e-01
-4.953606617056678e-02 -2.320596660860924e+00 6.444434838896321e-01
4.413254394351137e-04 -2.314019552659341e+00 -3.824807341005540e-02
2.033146205314817e-03 -1.639737929243176e+00 -3.614301526706358e-02
6.595701664495999e-16 -1.679126683210400e+00 5.760472408802075e-01
9.462425199555407e-16 -2.345266667157480e+00 6.490292755503270e-01
6.161897125552883e-16 -2.338744711553414e+00 -3.809096354706756e-02
5.411627605489010e-16 -1.671356564312188e+00 -3.626041070480258e-02
-4.953606617056678e-02 -2.320596660860924e+00 6.444434838896321e-01
-3.633395726934496e-02 -3.057669204109624e+00 7.005716317967996e-01
2.453959145381654e-05 -3.052184575527976e+00 -3.856425347692550e-02
4.413254394351137e-04 -2.314019552659341e+00 -3.824807341005540e-02
9.462425199555407e-16 -2.345266667157480e+00 6.490292755503270e-01
8.524498532581008e-16 -3.075558796613374e+00 7.045358507033851e-01
8.202664967083237e-16 -3.070673009474941e+00 -3.851803881213603e-02
6.161897125552883e-16 -2.338744711553414e+00 -3.809096354706756e-02
-3.633395726934496e-02 -3.057669204109624e+00 7.005716317967996e-01
-2.321966325861288e-02 -3.842955272254569e+00 7.405832782967499e-01
-2.573033048636336e-04 -3.838148314837075e+00 -3.766682189139903e-02
2.453959145381654e-05 -3.052184575527976e+00 -3.856425347692550e-02
8.524498532581008e-16 -3.075558796613374e+00 7.045358507033851e-01
7.014124299451364e-16 -3.853551219133910e+00 7.431353579899170e-01
7.647667628799945e-16 -3.850635391717262e+00 -3.877426349833731e-02
8.202664967083237e-16 -3.070673009474941e+00 -3.851803881213603e-02
-2.321966325861288e-02 -3.842955272254569e+00 7.405832782967499e-01
-1.311689652473608e-02 -4.658147042619155e+00 7.649601509095475e-01
-7.349450245739782e-05 -4.656215686961162e+00 -3.584236071674517e-02
-2.573033048636336e-04 -3.838148314837075e+00 -3.766682189139903e-02
7.014124299451364e-16 -3.853551219133910e+00 7.431353579899170e-01
8.566007685654884e-16 -4.664582557392571e+00 7.651593635518233e-01
8.046667011794975e-16 -4.664479499958723e+00 -3.956820694601926e-02
7.647667628799945e-16 -3.850635391717262e+00 -3.877426349833731e-02
-1.311689652473608e-02 -4.658147042619155e+00 7.649601509095475e-01
-1.416382701542785e-02 -5.483886995256582e+00 7.765218893000742e-01
-1.051234708535223e-02 -5.494435777928536e+00 -3.804914255738677e-02
-7.349450245739782e-05 -4.656215686961162e+00 -3.584236071674517e-02
8.566007685654884e-16 -4.664582557392571e+00 7.651593635518233e-01
1.353953489088634e-15 -5.483201385999533e+00 7.754991098859845e-01
1.091008859814525e-15 -5.491525678648274e+00 -4.059016499524956e-02
8.046667011794975e-16 -4.664479499958723e+00 -3.956820694601926e-02
2.033146205314817e-03 -1.639737929243176e+00 -3.614301526706358e-02
4.413254394351137e-04 -2.314019552659341e+00 -3.824807341005540e-02
4.856988690953095e-02 -2.321506417279850e+00 -7.217322380270640e-01
6.017201422223509e-02 -1.649902962959793e+00 -6.496317670671177e-01
5.411627605489010e-16 -1.671356564312188e+00 -3.626041070480258e-02
6.161897125552883e-16 -2.338744711553414e+00 -3.809096354706756e-02
5.659790122246220e-16 -2.345821962422117e+00 -7.252011295281552e-01
3.968582640325199e-16 -1.680430999335507e+00 -6.540477486471488e-01
4.413254394351137e-04 -2.314019552659341e+00 -3.824807341005540e-02
2.453959145381654e-05 -3.052184575527976e+00 -3.856425347692550e-02
3.720314032242287e-02 -3.057129615146613e+00 -7.778655414647861e-01
4.856988690953095e-02 -2.321506417279850e+00 -7.217322380270640e-01
6.161897125552883e-16 -2.338744711553414e+00 -3.809096354706756e-02
8.202664967083237e-16 -3.070673009474941e+00 -3.851803881213603e-02
7.078128029419913e-16 -3.075931115857711e+00 -7.811845146271237e-01
5.659790122246220e-16 -2.345821962422117e+00 -7.252011295281552e-01
2.453959145381654e-05 -3.052184575527976e+00 -3.856425347692550e-02
-2.573033048636336e-04 -3.838148314837075e+00 -3.766682189139903e-02
2.618365987337638e-02 -3.840683744970204e+00 -8.184210300359953e-01
3.720314032242287e-02 -3.057129615146613e+00 -7.778655414647861e-01
8.202664967083237e-16 -3.070673009474941e+00 -3.851803881213603e-02
7.647667628799945e-16 -3.850635391717262e+00 -3.877426349833731e-02
9.474282098585249e-16 -3.854750293929617e+00 -8.224868367490602e-01
7.078128029419913e-16 -3.075931115857711e+00 -7.811845146271237e-01
-2.573033048636336e-04 -3.838148314837075e+00 -3.766682189139903e-02
-7.349450245739782e-05 -4.656215686961162e+00 -3.584236071674517e-02
1.684923006470898e-02 -4.656718897981056e+00 -8.443955628674659e-01
2.618365987337638e-02 -3.840683744970204e+00 -8.184210300359953e-01
7.647667628799945e-16 -3.850635391717262e+00 -3.877426349833731e-02
8.046667011794975e-16 -4.664479499958723e+00 -3.956820694601926e-02
6.807419751607589e-16 -4.666982263894948e+00 -8.504516119299689e-01
9.474282098585249e-16 -3.854750293929617e+00 -8.224868367490602e-01
-7.349450245739782e-05 -4.656215686961162e+00 -3.584236071674517e-02
-1.051234708535223e-02 -5.494435777928536e+00 -3.804914255738677e-02
-5.415742243460196e-03 -5.519190832672550e+00 -8.642964737057370e-01
1.684923006470898e-02 -4.656718897981056e+00 -8.443955628674659e-01
8.046667011794975e-16 -4.664479499958723e+00 -3.956820694601926e-02
1.091008859814525e-15 -5.491525678648274e+00 -4.059016499524956e-02
5.663772641265275e-16 -5.505693531456020e+00 -8.660703606602037e-01
6.807419751607589e-16 -4.666982263894948e+00 -8.504516119299689e-01
6.595701664495999e-16 -1.679126683210400e+00 5.760472408802075e-01
9.462425199555407e-16 -2.345266667157480e+00 6.490292755503270e-01
6.161897125552883e-16 -2.338744711553414e+00 -3.809096354706756e-02
5.411627605489010e-16 -1.671356564312188e+00 -3.626041070480258e-02
6.452661330240991e-02 -1.647318628888737e+00 5.708990910510656e-01
4.953606617056866e-02 -2.320596660860924e+00 6.444434838896324e-01
-4.413254394339195e-04 -2.314019552659341e+00 -3.824807341005506e-02
-2.033146205313735e-03 -1.639737929243176e+00 -3.614301526706325e-02
9.462425199555407e-16 -2.345266667157480e+00 6.490292755503270e-01
8.524498532581008e-16 -3.075558796613374e+00 7.045358507033851e-01
8.202664967083237e-16 -3.070673009474941e+00 -3.851803881213603e-02
6.161897125552883e-16 -2.338744711553414e+00 -3.809096354706756e-02
4.953606617056866e-02 -2.320596660860924e+00 6.444434838896324e-01
3.633395726934681e-02 -3.057669204109624e+00 7.005716317967997e-01
-2.453959145247115e-05 -3.052184575527975e+00 -3.856425347692529e-02
-4.413254394339195e-04 -2.314019552659341e+00 -3.824807341005506e-02
8.524498532581008e-16 -3.075558796613374e+00 7.045358507033851e-01
7.014124299451364e-16 -3.853551219133910e+00 7.431353579899170e-01
7.647667628799945e-16 -3.850635391717262e+00 -3.877426349833731e-02
8.202664967083237e-16 -3.070673009474941e+00 -3.851803881213603e-02
3.633395726934681e-02 -3.057669204109624e+00 7.005716317967997e-01
2.321966325861470e-02 -3.842955272254569e+00 7.405832782967501e-01
2.573033048651611e-04 -3.838148314837075e+00 -3.766682189139921e-02
-2.453959145247115e-05 -3.052184575527975e+00 -3.856425347692529e-02
7.014124299451364e-16 -3.853551219133910e+00 7.431353579899170e-01
8.566007685654884e-16 -4.664582557392571e+00 7.651593635518233e-01
8.046667011794975e-16 -4.664479499958723e+00 -3.956820694601926e-02
7.647667628799945e-16 -3.850635391717262e+00 -3.877426349833731e-02
2.321966325861470e-02 -3.842955272254569e+00 7.405832782967501e-01
1.311689652473761e-02 -4.658147042619155e+00 7.649601509095478e-01
7.349450245935654e-05 -4.656215686961161e+00 -3.584236071674483e-02
2.573033048651611e-04 -3.838148314837075e+00 -3.766682189139921e-02
8.566007685654884e-16 -4.664582557392571e+00 7.651593635518233e-01
1.353953489088634e-15 -5.483201385999533e+00 7.754991098859845e-01
1.091008859814525e-15 -5.491525678648274e+00 -4.059016499524956e-02
8.046667011794975e-16 -4.664479499958723e+00 -3.956820694601926e-02
1.311689652473761e-02 -4.658147042619155e+00 7.649601509095478e-01
1.416382701543016e-02 -5.483886995256581e+00 7.765218893000749e-01
1.051234708535369e-02 -5.494435777928536e+00 -3.804914255738693e-02
7.349450245935654e-05 -4.656215686961161e+00 -3.584236071674483e-02
5.411627605489010e-16 -1.671356564312188e+00 -3.626041070480258e-02
6.161897125552883e-16 -2.338744711553414e+00 -3.809096354706756e-02
5.659790122246220e-16 -2.345821962422117e+00 -7.252011295281552e-01
3.968582640325199e-16 -1.680430999335507e+00 -6.540477486471488e-01
-2.033146205313735e-03 -1.639737929243176e+00 -3.614301526706325e-02
-4.413254394339195e-04 -2.314019552659341e+00 -3.824807341005506e-02
-4.856988690952971e-02 -2.321506417279850e+00 -7.217322380270635e-01
-6.017201422223421e-02 -1.649902962959793e+00 -6.496317670671174e-01
6.161897125552883e-16 -2.338744711553414e+00 -3.809096354706756e-02
8.202664967083237e-16 -3.070673009474941e+00 -3.851803881213603e-02
7.078128029419913e-16 -3.075931115857711e+00 -7.811845146271237e-01
5.659790122246220e-16 -2.345821962422117e+00 -7.252011295281552e-01
-4.413254394339195e-04 -2.314019552659341e+00 -3.824807341005506e-02
-2.453959145247115e-05 -3.052184575527975e+00 -3.856425347692529e-02
-3.720314032242140e-02 -3.057129615146613e+00 -7.778655414647863e-01
-4.856988690952971e-02 -2.321506417279850e+00 -7.217322380270635e-01
8.202664967083237e-16 -3.070673009474941e+00 -3.851803881213603e-02
7.647667628799945e-16 -3.850635391717262e+00 -3.877426349833731e-02
9.474282098585249e-16 -3.854750293929617e+00 -8.224868367490602e-01
7.078128029419913e-16 -3.075931115857711e+00 -7.811845146271237e-01
-2.453959145247115e-05 -3.052184575527975e+00 -3.856425347692529e-02
2.573033048651611e-04 -3.838148314837075e+00 -3.766682189139921e-02
-2.618365987337487e-02 -3.840683744970203e+00 -8.184210300359955e-01
-3.720314032242140e-02 -3.057129615146613e+00 -7.778655414647863e-01
7.647667628799945e-16 -3.850635391717262e+00 -3.877426349833731e-02
8.046667011794975e-16 -4.664479499958723e+00 -3.956820694601926e-02
6.807419751607589e-16 -4.666982263894948e+00 -8.504516119299689e-01
9.474282098585249e-16 -3.854750293929617e+00 -8.224868367490602e-01
2.573033048651611e-04 -3.838148314837075e+00 -3.766682189139921e-02
7.349450245935654e-05 -4.656215686961161e+00 -3.584236071674483e-02
-1.684923006470722e-02 -4.656718897981056e+00 -8.443955628674660e-01
-2.618365987337487e-02 -3.840683744970203e+00 -8.184210300359955e-01
8.046667011794975e-16 -4.664479499958723e+00 -3.956820694601926e-02
1.091008859814525e-15 -5.491525678648274e+00 -4.059016499524956e-02
5.663772641265275e-16 -5.505693531456020e+00 -8.660703606602037e-01
6.807419751607589e-16 -4.666982263894948e+00 -8.504516119299689e-01
7.349450245935654e-05 -4.656215686961161e+00 -3.584236071674483e-02
1.051234708535369e-02 -5.494435777928536e+00 -3.804914255738693e-02
5.415742243461998e-03 -5.519190832672549e+00 -8.642964737057364e-01
-1.684923006470722e-02 -4.656718897981056e+00 -8.443955628674660e-01
        </DataArray>
        <DataArray type="Float64" Name="nodal_GL_strains_xyz" NumberOfComponents="6" format="ascii">
6.452661330240947e-02 7.580699645561491e-03 -8.366715463752834e-02 1.737585259303068e-02 1.242883554479950e-02 -5.148703869110262e-03
4.953606617056774e-02 6.577108201582343e-03 -6.483627037286713e-02 1.265369265672355e-02 1.124186515537801e-02 -4.755268177918630e-03
-4.413254394344991e-04 -4.548782094629120e-04 1.210619104930964e-03 1.216390882298809e-02 1.156773109202583e-02 5.807065849591944e-04
-2.033146205314279e-03 -1.292167035528066e-03 3.699880147696107e-03 1.536533934665487e-02 1.175262333483358e-02 1.205832063383858e-03
6.452661330240936e-02 7.770118898211763e-03 -8.304958559252856e-02 -5.898059818321144e-17 5.762726263131973e-03 -7.264154555652880e-17
4.953606617056772e-02 6.521955604065228e-03 -6.424430491158876e-02 -2.393918396847994e-16 5.547908802046217e-03 -2.493664996716660e-18
-4.413254394345177e-04 -2.776476323187539e-04 1.128814053666741e-03 -1.669671345627677e-17 6.271510021067592e-03 2.052530237786621e-17
-2.033146205314279e-03 -6.521580625535441e-04 3.445614257512121e-03 -1.075528555105620e-16 5.500027405527592e-03 5.295649986233886e-17
4.953606617056774e-02 6.577108201582343e-03 -6.483627037286713e-02 1.265369265672355e-02 1.124186515537801e-02 -4.755268177918630e-03
3.633395726934582e-02 5.484628581649111e-03 -4.806989720355889e-02 9.234452178524141e-03 1.102171021154853e-02 -4.596991274695737e-03
-2.453959145299803e-05 2.697944815053146e-04 -2.906257593281611e-04 9.140057424459827e-03 1.142289722903702e-02 1.977645184694368e-04
-4.413254394344991e-04 -4.548782094629120e-04 1.210619104930964e-03 1.216390882298809e-02 1.156773109202583e-02 5.807065849591944e-04
4.953606617056772e-02 6.521955604065228e-03 -6.424430491158876e-02 -2.393918396847994e-16 5.547908802046217e-03 -2.493664996716660e-18
3.633395726934589e-02 4.885787138433339e-03 -4.705304121979507e-02 6.678685382510707e-17 5.544193236346948e-03 1.224064252736135e-16
-2.453959145314410e-05 -1.861596221683154e-04 3.416499756348846e-04 2.072994553792284e-16 6.542578708334785e-03 -3.681205188767189e-18
-4.413254394345177e-04 -2.776476323187539e-04 1.128814053666741e-03 -1.669671345627677e-17 6.271510021067592e-03 2.052530237786621e-17
3.633395726934582e-02 5.484628581649111e-03 -4.806989720355889e-02 9.234452178524141e-03 1.102171021154853e-02 -4.596991274695737e-03
2.321966325861360e-02 4.806957417492977e-03 -3.219425955637394e-02 6.183206537204841e-03 1.099440953330831e-02 -4.528225339568704e-03
2.573033048643948e-04 1.135763642182341e-03 -1.360946380090145e-03 6.107292342903401e-03 1.125670077511033e-02 -5.292122799913407e-04
-2.453959145299803e-05 2.697944815053146e-04 -2.906257593281611e-04 9.140057424459827e-03 1.142289722903702e-02 1.977645184694368e-04
3.633395726934589e-02 4.885787138433339e-03 -4.705304121979507e-02 6.678685382510707e-17 5.544193236346948e-03 1.224064252736135e-16
2.321966325861379e-02 2.915827416647925e-03 -3.031175642421918e-02 -2.424276057677588e-16 6.301129450671776e-03 1.029449962774986e-16
2.573033048643955e-04 -5.995373978532883e-04 5.250840669416258e-04 -1.878922364917379e-16 7.046073936201522e-03 -7.106945240642482e-17
-2.453959145314410e-05 -1.861596221683154e-04 3.416499756348846e-04 2.072994553792284e-16 6.542578708334785e-03 -3.681205188767189e-18
2.321966325861360e-02 4.806957417492977e-03 -3.219425955637394e-02 6.183206537204841e-03 1.099440953330831e-02 -4.528225339568704e-03
1.311689652473694e-02 1.931355657993538e-03 -1.796930550166213e-02 3.303943624431667e-03 9.831674937356986e-03 -2.164352739658427e-03
7.349450245820071e-05 7.140723190492808e-04 1.911603329938571e-04 3.359625148581543e-03 1.173293732861191e-02 7.008378304851171e-04
2.573033048643948e-04 1.135763642182341e-03 -1.360946380090145e-03 6.107292342903401e-03 1.125670077511033e-02 -5.292122799913407e-04
2.321966325861379e-02 2.915827416647925e-03 -3.031175642421918e-02 -2.424276057677588e-16 6.301129450671776e-03 1.029449962774986e-16
1.311689652473685e-02 1.030574338466741e-04 -1.618187594803371e-02 2.043721095135176e-16 5.048756467484755e-03 -1.121674910072035e-16
7.349450245837815e-05 -1.199853251188475e-03 9.079507484561157e-04 -7.578573185673676e-17 6.319827862304889e-03 3.146896805639177e-17
2.573033048643955e-04 -5.995373978532883e-04 5.250840669416258e-04 -1.878922364917379e-16 7.046073936201522e-03 -7.106945240642482e-17
1.311689652473694e-02 1.931355657993538e-03 -1.796930550166213e-02 3.303943624431667e-03 9.831674937356986e-03 -2.164352739658427e-03
1.416382701542921e-02 -1.054878267195402e-02 -1.156173839052669e-02 2.168544593563139e-03 5.584460389982913e-03 1.207553830093499e-05
1.051234708535333e-02 -1.765191870798491e-02 2.206781840641598e-03 3.642070833123332e-03 8.905454732234220e-03 3.948915072516019e-03
7.349450245820071e-05 7.140723190492808e-04 1.911603329938571e-04 3.359625148581543e-03 1.173293732861191e-02 7.008378304851171e-04
1.311689652473685e-02 1.030574338466741e-04 -1.618187594803371e-02 2.043721095135176e-16 5.048756467484755e-03 -1.121674910072035e-16
1.416382701542901e-02 -8.324292648740052e-03 -1.033974633416113e-02 4.288290642723291e-16 1.264776862864174e-03 1.138412281109780e-17
1.051234708535296e-02 -1.124607272824356e-02 1.021958049230318e-03 -5.538104697055957e-16 3.130721708228280e-03 -1.859406725812640e-16
7.349450245837815e-05 -1.199853251188475e-03 9.079507484561157e-04 -7.578573185673676e-17 6.319827862304889e-03 3.146896805639177e-17
-2.033146205314279e-03 -1.292167035528066e-03 3.699880147696107e-03 1.536533934665487e-02 1.175262333483358e-02 1.205832063383858e-03
-4.413254394344991e-04 -4.548782094629120e-04 1.210619104930964e-03 1.216390882298809e-02 1.156773109202583e-02 5.807065849591944e-04
-4.856988690953040e-02 -7.486864620508235e-03 6.411688719883427e-02 1.190650816391392e-02 1.006458073820068e-02 4.007772724407445e-03
-6.017201422223471e-02 -1.016503371661720e-02 8.175718010139228e-02 1.380541582060324e-02 8.847897670367958e-03 5.166881943740396e-03
-2.033146205314279e-03 -6.521580625535441e-04 3.445614257512121e-03 -1.075528555105620e-16 5.500027405527592e-03 5.295649986233886e-17
-4.413254394345177e-04 -2.776476323187539e-04 1.128814053666741e-03 -1.669671345627677e-17 6.271510021067592e-03 2.052530237786621e-17
-4.856988690953033e-02 -7.077250868702241e-03 6.356838298998745e-02 4.427881672430800e-16 5.319946140007192e-03 3.962758940434519e-17
-6.017201422223466e-02 -9.074435023319050e-03 8.068004533929606e-02 -2.172741153660951e-16 3.021253426382682e-03 -4.141652298894627e-17
-4.413254394344991e-04 -4.548782094629120e-04 1.210619104930964e-03 1.216390882298809e-02 1.156773109202583e-02 5.807065849591944e-04
-2.453959145299803e-05 2.697944815053146e-04 -2.906257593281611e-04 9.140057424459827e-03 1.142289722903702e-02 1.977645184694368e-04
-3.720314032242216e-02 -4.945039618637568e-03 4.834439600446561e-02 9.188550009936429e-03 1.014368792865821e-02 3.937070177869867e-03
-4.856988690953040e-02 -7.486864620508235e-03 6.411688719883427e-02 1.190650816391392e-02 1.006458073820068e-02 4.007772724407445e-03
-4.413254394345177e-04 -2.776476323187539e-04 1.128814053666741e-03 -1.669671345627677e-17 6.271510021067592e-03 2.052530237786621e-17
-2.453959145314410e-05 -1.861596221683154e-04 3.416499756348846e-04 2.072994553792284e-16 6.542578708334785e-03 -3.681205188767189e-18
-3.720314032242215e-02 -5.258106382770106e-03 4.864285361045249e-02 -4.453902524570452e-16 5.898844969381129e-03 -4.542807102714264e-17
-4.856988690953033e-02 -7.077250868702241e-03 6.356838298998745e-02 4.427881672430800e-16 5.319946140007192e-03 3.962758940434519e-17
-2.453959145299803e-05 2.697944815053146e-04 -2.906257593281611e-04 9.140057424459827e-03 1.142289722903702e-02 1.977645184694368e-04
2.573033048643948e-04 1.135763642182341e-03 -1.360946380090145e-03 6.107292342903401e-03 1.125670077511033e-02 -5.292122799913407e-04
-2.618365987337544e-02 -2.535430133128262e-03 3.326501070133976e-02 6.187207109413990e-03 9.520216636312787e-03 3.055574207896157e-03
-3.720314032242216e-02 -4.945039618637568e-03 4.834439600446561e-02 9.188550009936429e-03 1.014368792865821e-02 3.937070177869867e-03
-2.453959145314410e-05 -1.861596221683154e-04 3.416499756348846e-04 2.072994553792284e-16 6.542578708334785e-03 -3.681205188767189e-18
2.573033048643955e-04 -5.995373978532883e-04 5.250840669416258e-04 -1.878922364917379e-16 7.046073936201522e-03 -7.106945240642482e-17
-2.618365987337563e-02 -4.114902212353983e-03 3.463354865142269e-02 7.806255641895632e-18 5.906500383947627e-03 4.250072516143177e-17
-3.720314032242215e-02 -5.258106382770106e-03 4.864285361045249e-02 -4.453902524570452e-16 5.898844969381129e-03 -4.542807102714264e-17
2.573033048643948e-04 1.135763642182341e-03 -1.360946380090145e-03 6.107292342903401e-03 1.125670077511033e-02 -5.292122799913407e-04
7.349450245820071e-05 7.140723190492808e-04 1.911603329938571e-04 3.359625148581543e-03 1.173293732861191e-02 7.008378304851171e-04
-1.684923006470831e-02 -5.032110198940794e-04 2.293772183487093e-02 3.329679326637203e-03 1.535017085022629e-02 4.871825997957606e-03
-2.618365987337544e-02 -2.535430133128262e-03 3.326501070133976e-02 6.187207109413990e-03 9.520216636312787e-03 3.055574207896157e-03
2.573033048643955e-04 -5.995373978532883e-04 5.250840669416258e-04 -1.878922364917379e-16 7.046073936201522e-03 -7.106945240642482e-17
7.349450245837815e-05 -1.199853251188475e-03 9.079507484561157e-04 -7.578573185673676e-17 6.319827862304889e-03 3.146896805639177e-17
-1.684923006470811e-02 -2.502763936224200e-03 2.179176195557184e-02 -6.446666117598809e-16 7.294106889626263e-03 -4.206704429243757e-17
-2.618365987337563e-02 -4.114902212353983e-03 3.463354865142269e-02 7.806255641895632e-18 5.906500383947627e-03 4.250072516143177e-17
7.349450245820071e-05 7.140723190492808e-04 1.911603329938571e-04 3.359625148581543e-03 1.173293732861191e-02 7.008378304851171e-04
1.051234708535333e-02 -1.765191870798491e-02 2.206781840641598e-03 3.642070833123332e-03 8.905454732234220e-03 3.948915072516019e-03
5.415742243460729e-03 -2.475505474401507e-02 1.990091083827117e-02 9.296953029209498e-03 1.811230177157144e-02 1.024554267685129e-02
-1.684923006470831e-02 -5.032110198940794e-04 2.293772183487093e-02 3.329679326637203e-03 1.535017085022629e-02 4.871825997957606e-03
7.349450245837815e-05 -1.199853251188475e-03 9.079507484561157e-04 -7.578573185673676e-17 6.319827862304889e-03 3.146896805639177e-17
1.051234708535296e-02 -1.124607272824356e-02 1.021958049230318e-03 -5.538104697055957e-16 3.130721708228280e-03 -1.859406725812640e-16
5.415742243461097e-03 -1.416785280774710e-02 1.561874873023482e-02 -1.647987302177967e-16 6.615535948059329e-03 7.930938891731465e-17
-1.684923006470811e-02 -2.502763936224200e-03 2.179176195557184e-02 -6.446666117598809e-16 7.294106889626263e-03 -4.206704429243757e-17
6.452661330240936e-02 7.770118898211763e-03 -8.304958559252856e-02 -5.898059818321144e-17 5.762726263131973e-03 -7.264154555652880e-17
4.953606617056772e-02 6.521955604065228e-03 -6.424430491158876e-02 -2.393918396847994e-16 5.547908802046217e-03 -2.493664996716660e-18
-4.413254394345177e-04 -2.776476323187539e-04 1.128814053666741e-03 -1.669671345627677e-17 6.271510021067592e-03 2.052530237786621e-17
-2.033146205314279e-03 -6.521580625535441e-04 3.445614257512121e-03 -1.075528555105620e-16 5.500027405527592e-03 5.295649986233886e-17
6.452661330240925e-02 7.580699645561810e-03 -8.366715463752819e-02 -1.737585259303047e-02 1.242883554479957e-02 5.148703869110156e-03
4.953606617056770e-02 6.577108201582284e-03 -6.483627037286714e-02 -1.265369265672292e-02 1.124186515537817e-02 4.755268177918570e-03
-4.413254394345341e-04 -4.548782094628764e-04 1.210619104931020e-03 -1.216390882298811e-02 1.156773109202598e-02 -5.807065849590598e-04
-2.033146205314277e-03 -1.292167035527808e-03 3.699880147696077e-03 -1.536533934665492e-02 1.175262333483367e-02 -1.205832063383836e-03
4.953606617056772e-02 6.521955604065228e-03 -6.424430491158876e-02 -2.393918396847994e-16 5.547908802046217e-03 -2.493664996716660e-18
3.633395726934589e-02 4.885787138433339e-03 -4.705304121979507e-02 6.678685382510707e-17 5.544193236346948e-03 1.224064252736135e-16
-2.453959145314410e-05 -1.861596221683154e-04 3.416499756348846e-04 2.072994553792284e-16 6.542578708334785e-03 -3.681205188767189e-18
-4.413254394345177e-04 -2.776476323187539e-04 1.128814053666741e-03 -1.669671345627677e-17 6.271510021067592e-03 2.052530237786621e-17
4.953606617056770e-02 6.577108201582284e-03 -6.483627037286714e-02 -1.265369265672292e-02 1.124186515537817e-02 4.755268177918570e-03
3.633395726934595e-02 5.484628581649362e-03 -4.806989720355878e-02 -9.234452178525174e-03 1.102171021154862e-02 4.596991274695685e-03
-2.453959145328963e-05 2.697944815054009e-04 -2.906257593279361e-04 -9.140057424459617e-03 1.142289722903686e-02 -1.977645184693863e-04
-4.413254394345341e-04 -4.548782094628764e-04 1.210619104931020e-03 -1.216390882298811e-02 1.156773109202598e-02 -5.807065849590598e-04
3.633395726934589e-02 4.885787138433339e-03 -4.705304121979507e-02 6.678685382510707e-17 5.544193236346948e-03 1.224064252736135e-16
2.321966325861379e-02 2.915827416647925e-03 -3.031175642421918e-02 -2.424276057677588e-16 6.301129450671776e-03 1.029449962774986e-16
2.573033048643955e-04 -5.995373978532883e-04 5.250840669416258e-04 -1.878922364917379e-16 7.046073936201522e-03 -7.106945240642482e-17
-2.453959145314410e-05 -1.861596221683154e-04 3.416499756348846e-04 2.072994553792284e-16 6.542578708334785e-03 -3.681205188767189e-18
3.633395726934595e-02 5.484628581649362e-03 -4.806989720355878e-02 -9.234452178525174e-03 1.102171021154862e-02 4.596991274695685e-03
2.321966325861400e-02 4.806957417493877e-03 -3.219425955637400e-02 -6.183206537204435e-03 1.099440953330836e-02 4.528225339568776e-03
2.573033048643974e-04 1.135763642182371e-03 -1.360946380090246e-03 -6.107292342903632e-03 1.125670077511008e-02 5.292122799911285e-04
-2.453959145328963e-05 2.697944815054009e-04 -2.906257593279361e-04 -9.140057424459617e-03 1.142289722903686e-02 -1.977645184693863e-04
2.321966325861379e-02 2.915827416647925e-03 -3.031175642421918e-02 -2.424276057677588e-16 6.301129450671776e-03 1.029449962774986e-16
1.311689652473685e-02 1.030574338466741e-04 -1.618187594803371e-02 2.043721095135176e-16 5.048756467484755e-03 -1.121674910072035e-16
7.349450245837815e-05 -1.199853251188475e-03 9.079507484561157e-04 -7.578573185673676e-17 6.319827862304889e-03 3.146896805639177e-17
2.573033048643955e-04 -5.995373978532883e-04 5.250840669416258e-04 -1.878922364917379e-16 7.046073936201522e-03 -7.106945240642482e-17
2.321966325861400e-02 4.806957417493877e-03 -3.219425955637400e-02 -6.183206537204435e-03 1.099440953330836e-02 4.528225339568776e-03
1.311689652473675e-02 1.931355657994055e-03 -1.796930550166245e-02 -3.303943624430979e-03 9.831674937356708e-03 2.164352739658420e-03
7.349450245855503e-05 7.140723190484831e-04 1.911603329938536e-04 -3.359625148580192e-03 1.173293732861193e-02 -7.008378304849392e-04
2.573033048643974e-04 1.135763642182371e-03 -1.360946380090246e-03 -6.107292342903632e-03 1.125670077511008e-02 5.292122799911285e-04
1.311689652473685e-02 1.030574338466741e-04 -1.618187594803371e-02 2.043721095135176e-16 5.048756467484755e-03 -1.121674910072035e-16
1.416382701542901e-02 -8.324292648740052e-03 -1.033974633416113e-02 4.288290642723291e-16 1.264776862864174e-03 1.138412281109780e-17
1.051234708535296e-02 -1.124607272824356e-02 1.021958049230318e-03 -5.538104697055957e-16 3.130721708228280e-03 -1.859406725812640e-16
7.349450245837815e-05 -1.199853251188475e-03 9.079507484561157e-04 -7.578573185673676e-17 6.319827862304889e-03 3.146896805639177e-17
1.311689652473675e-02 1.931355657994055e-03 -1.796930550166245e-02 -3.303943624430979e-03 9.831674937356708e-03 2.164352739658420e-03
1.416382701542881e-02 -1.054878267195451e-02 -1.156173839052707e-02 -2.168544593562334e-03 5.584460389982312e-03 -1.207553830094983e-05
1.051234708535260e-02 -1.765191870798276e-02 2.206781840642099e-03 -3.642070833122235e-03 8.905454732234669e-03 -3.948915072515911e-03
7.349450245855503e-05 7.140723190484831e-04 1.911603329938536e-04 -3.359625148580192e-03 1.173293732861193e-02 -7.008378304849392e-04
-2.033146205314279e-03 -6.521580625535441e-04 3.445614257512121e-03 -1.075528555105620e-16 5.500027405527592e-03 5.295649986233886e-17
-4.413254394345177e-04 -2.776476323187539e-04 1.128814053666741e-03 -1.669671345627677e-17 6.271510021067592e-03 2.052530237786621e-17
-4.856988690953033e-02 -7.077250868702241e-03 6.356838298998745e-02 4.427881672430800e-16 5.319946140007192e-03 3.962758940434519e-17
-6.017201422223466e-02 -9.074435023319050e-03 8.068004533929606e-02 -2.172741153660951e-16 3.021253426382682e-03 -4.141652298894627e-17
-2.033146205314277e-03 -1.292167035527808e-03 3.699880147696077e-03 -1.536533934665492e-02 1.175262333483367e-02 -1.205832063383836e-03
-4.413254394345341e-04 -4.548782094628764e-04 1.210619104931020e-03 -1.216390882298811e-02 1.156773109202598e-02 -5.807065849590598e-04
-4.856988690953028e-02 -7.486864620508014e-03 6.411688719883445e-02 -1.190650816391498e-02 1.006458073820092e-02 -4.007772724407468e-03
-6.017201422223460e-02 -1.016503371661702e-02 8.175718010139213e-02 -1.380541582060248e-02 8.847897670367979e-03 -5.166881943740458e-03
-4.413254394345177e-04 -2.776476323187539e-04 1.128814053666741e-03 -1.669671345627677e-17 6.271510021067592e-03 2.052530237786621e-17
-2.453959145314410e-05 -1.861596221683154e-04 3.416499756348846e-04 2.072994553792284e-16 6.542578708334785e-03 -3.681205188767189e-18
-3.720314032242215e-02 -5.258106382770106e-03 4.864285361045249e-02 -4.453902524570452e-16 5.898844969381129e-03 -4.542807102714264e-17
-4.856988690953033e-02 -7.077250868702241e-03 6.356838298998745e-02 4.427881672430800e-16 5.319946140007192e-03 3.962758940434519e-17
-4.413254394345341e-04 -4.548782094628764e-04 1.210619104931020e-03 -1.216390882298811e-02 1.156773109202598e-02 -5.807065849590598e-04
-2.453959145328963e-05 2.697944815054009e-04 -2.906257593279361e-04 -9.140057424459617e-03 1.142289722903686e-02 -1.977645184693863e-04
-3.720314032242212e-02 -4.945039618638397e-03 4.834439600446602e-02 -9.188550009934852e-03 1.014368792865786e-02 -3.937070177869931e-03
-4.856988690953028e-02 -7.486864620508014e-03 6.411688719883445e-02 -1.190650816391498e-02 1.006458073820092e-02 -4.007772724407468e-03
-2.453959145314410e-05 -1.861596221683154e-04 3.416499756348846e-04 2.072994553792284e-16 6.542578708334785e-03 -3.681205188767189e-18
2.573033048643955e-04 -5.995373978532883e-04 5.250840669416258e-04 -1.878922364917379e-16 7.046073936201522e-03 -7.106945240642482e-17
-2.618365987337563e-02 -4.114902212353983e-03 3.463354865142269e-02 7.806255641895632e-18 5.906500383947627e-03 4.250072516143177e-17
-3.720314032242215e-02 -5.258106382770106e-03 4.864285361045249e-02 -4.453902524570452e-16 5.898844969381129e-03 -4.542807102714264e-17
-2.453959145328963e-05 2.697944815054009e-04 -2.906257593279361e-04 -9.140057424459617e-03 1.142289722903686e-02 -1.977645184693863e-04
2.573033048643974e-04 1.135763642182371e-03 -1.360946380090246e-03 -6.107292342903632e-03 1.125670077511008e-02 5.292122799911285e-04
-2.618365987337583e-02 -2.535430133128984e-03 3.326501070133983e-02 -6.187207109413421e-03 9.520216636312844e-03 -3.055574207896380e-03
-3.720314032242212e-02 -4.945039618638397e-03 4.834439600446602e-02 -9.188550009934852e-03 1.014368792865786e-02 -3.937070177869931e-03
2.573033048643955e-04 -5.995373978532883e-04 5.250840669416258e-04 -1.878922364917379e-16 7.046073936201522e-03 -7.106945240642482e-17
7.349450245837815e-05 -1.199853251188475e-03 9.079507484561157e-04 -7.578573185673676e-17 6.319827862304889e-03 3.146896805639177e-17
-1.684923006470811e-02 -2.502763936224200e-03 2.179176195557184e-02 -6.446666117598809e-16 7.294106889626263e-03 -4.206704429243757e-17
-2.618365987337563e-02 -4.114902212353983e-03 3.463354865142269e-02 7.806255641895632e-18 5.906500383947627e-03 4.250072516143177e-17
2.573033048643974e-04 1.135763642182371e-03 -1.360946380090246e-03 -6.107292342903632e-03 1.125670077511008e-02 5.292122799911285e-04
7.349450245855503e-05 7.140723190484831e-04 1.911603329938536e-04 -3.359625148580192e-03 1.173293732861193e-02 -7.008378304849392e-04
-1.684923006470790e-02 -5.032110198953014e-04 2.293772183487034e-02 -3.329679326637683e-03 1.535017085022613e-02 -4.871825997957686e-03
-2.618365987337583e-02 -2.535430133128984e-03 3.326501070133983e-02 -6.187207109413421e-03 9.520216636312844e-03 -3.055574207896380e-03
7.349450245837815e-05 -1.199853251188475e-03 9.079507484561157e-04 -7.578573185673676e-17 6.319827862304889e-03 3.146896805639177e-17
1.051234708535296e-02 -1.124607272824356e-02 1.021958049230318e-03 -5.538104697055957e-16 3.130721708228280e-03 -1.859406725812640e-16
5.415742243461097e-03 -1.416785280774710e-02 1.561874873023482e-02 -1.647987302177967e-16 6.615535948059329e-03 7.930938891731465e-17
-1.684923006470811e-02 -2.502763936224200e-03 2.179176195557184e-02 -6.446666117598809e-16 7.294106889626263e-03 -4.206704429243757e-17
7.349450245855503e-05 7.140723190484831e-04 1.911603329938536e-04 -3.359625148580192e-03 1.173293732861193e-02 -7.008378304849392e-04
1.051234708535260e-02 -1.765191870798276e-02 2.206781840642099e-03 -3.642070833122235e-03 8.905454732234669e-03 -3.948915072515911e-03
5.415742243461467e-03 -2.475505474401176e-02 1.990091083827032e-02 -9.296953029210832e-03 1.811230177157136e-02 -1.024554267685091e-02
-1.684923006470790e-02 -5.032110198953014e-04 2.293772183487034e-02 -3.329679326637683e-03 1.535017085022613e-02 -4.871825997957686e-03
        </DataArray>
        <DataArray type="Float64" Name="nodal_cauchy_stresses_xyz" NumberOfComponents="6" format="ascii">
-5.012938308937789e-01 -8.860635177643734e-01 -1.502603073731197e+00 1.174044094123694e-01 8.397861854594257e-02 -3.478853965615042e-02
-3.725749043110579e-01 -6.628381338312295e-01 -1.145360962036969e+00 8.549792335624021e-02 7.595854834714867e-02 -3.213019039134209e-02
2.251121643897380e-02 2.241964366851154e-02 3.367300390090258e-02 8.218857312829791e-02 7.816034521639068e-02 3.923693141616178e-03
2.791729539180426e-02 3.426509892772281e-02 7.078685594837525e-02 1.043061875520301e-01 7.934529677580973e-02 8.335057328771597e-03
-4.358623473005399e-01 -8.193521743559290e-01 -1.432998826320391e+00 -3.920475055707584e-16 3.893733961575658e-02 -4.917941054394248e-16
-3.290495369790687e-01 -6.196854191851666e-01 -1.097835828074721e+00 -1.623701173514291e-15 3.748587028409607e-02 -1.647987302177967e-17
3.024842124004797e-02 3.135435236920855e-02 4.085747186911051e-02 -1.040834085586084e-16 4.237506770991616e-02 1.387101154423642e-16
5.989473290719420e-02 7.068592658330915e-02 1.012578579593696e-01 -7.407269242420966e-16 3.686469993594851e-02 3.592774949073840e-16
-3.725749043110579e-01 -6.628381338312295e-01 -1.145360962036969e+00 8.549792335624021e-02 7.595854834714867e-02 -3.213019039134209e-02
-2.613633713609563e-01 -4.698047814129610e-01 -8.316596853670694e-01 6.239494715219016e-02 7.447101494289542e-02 -3.106075185605228e-02
-3.844527180831947e-03 -1.855783444627196e-03 -5.642406693501967e-03 6.175714475986369e-02 7.718173803403394e-02 1.336246746415116e-03
2.251121643897380e-02 2.241964366851154e-02 3.367300390090258e-02 8.218857312829791e-02 7.816034521639068e-02 3.923693141616178e-03
-3.290495369790687e-01 -6.196854191851666e-01 -1.097835828074721e+00 -1.623701173514291e-15 3.748587028409607e-02 -1.647987302177967e-17
-2.274703005057040e-01 -4.399579365253833e-01 -7.908959659728725e-01 4.458239333260394e-16 3.746076511045233e-02 8.274630980409370e-16
1.045182130208086e-02 9.359794067518933e-03 1.292607513375669e-02 1.399921845113283e-15 4.420661289415397e-02 -2.484178227707412e-17
3.024842124004797e-02 3.135435236920855e-02 4.085747186911051e-02 -1.040834085586084e-16 4.237506770991616e-02 1.387101154423642e-16
-2.613633713609563e-01 -4.698047814129610e-01 -8.316596853670694e-01 6.239494715219016e-02 7.447101494289542e-02 -3.106075185605228e-02
-1.810270493553701e-01 -3.054372239575361e-01 -5.554454467539344e-01 4.177842254868136e-02 7.428655090073180e-02 -3.059611715924801e-02
4.342906137456082e-03 1.027844895717196e-02 -6.591213355480033e-03 4.126548880340136e-02 7.605878902101576e-02 -3.575758648590140e-03
-3.844527180831947e-03 -1.855783444627196e-03 -5.642406693501967e-03 6.175714475986369e-02 7.718173803403394e-02 1.336246746415116e-03
-2.274703005057040e-01 -4.399579365253833e-01 -7.908959659728725e-01 4.458239333260394e-16 3.746076511045233e-02 8.274630980409370e-16
-1.817265251951061e-01 -3.189146052083889e-01 -5.434253068358694e-01 -1.637578961322106e-15 4.257519899102551e-02 6.956241138666996e-16
1.656420940741333e-02 1.077474519986139e-02 1.837353888090810e-02 -1.267215499201058e-15 4.760860767703730e-02 -4.805184028455756e-16
1.045182130208086e-02 9.359794067518933e-03 1.292607513375669e-02 1.399921845113283e-15 4.420661289415397e-02 -2.484178227707412e-17
-1.810270493553701e-01 -3.054372239575361e-01 -5.554454467539344e-01 4.177842254868136e-02 7.428655090073180e-02 -3.059611715924801e-02
-1.482144817732621e-01 -2.237924606026094e-01 -3.582563873570399e-01 2.232394340832207e-02 6.643023606322289e-02 -1.462400499769208e-02
7.985284024644768e-02 8.418106873692791e-02 8.064787964195883e-02 2.270016992284827e-02 7.927660357170208e-02 4.735390746521058e-03
4.342906137456082e-03 1.027844895717196e-02 -6.591213355480033e-03 4.126548880340136e-02 7.605878902101576e-02 -3.575758648590140e-03
-1.817265251951061e-01 -3.189146052083889e-01 -5.434253068358694e-01 -1.637578961322106e-15 4.257519899102551e-02 6.956241138666996e-16
-1.515281577612527e-01 -2.394595029699701e-01 -3.494928366313240e-01 1.382574610353515e-15 3.411321937489700e-02 -7.573694275897491e-16
-1.721217230290129e-02 -2.581587334105572e-02 -1.157395442453822e-02 -5.095750210681871e-16 4.270153961016816e-02 2.120699449381647e-16
1.656420940741333e-02 1.077474519986139e-02 1.837353888090810e-02 -1.267215499201058e-15 4.760860767703730e-02 -4.805184028455756e-16
-1.482144817732621e-01 -2.237924606026094e-01 -3.582563873570399e-01 2.232394340832207e-02 6.643023606322289e-02 -1.462400499769208e-02
-5.486250104674910e-01 -7.156021029498101e-01 -7.224463983455714e-01 1.465232833488607e-02 3.773284047285752e-02 8.159147500631686e-05
-3.289265560711239e-01 -5.192256492693552e-01 -3.850452401570139e-01 2.460858671029278e-02 6.017199143401501e-02 2.668185859808121e-02
7.985284024644768e-02 8.418106873692791e-02 8.064787964195883e-02 2.270016992284827e-02 7.927660357170208e-02 4.735390746521058e-03
-1.515281577612527e-01 -2.394595029699701e-01 -3.494928366313240e-01 1.382574610353515e-15 3.411321937489700e-02 -7.573694275897491e-16
-2.691805175286284e-01 -4.211272720162573e-01 -4.347452023231564e-01 2.898722928357245e-15 8.545789613947129e-03 7.676151381197371e-17
9.439956730695753e-02 -5.261678278491087e-02 3.027531706288561e-02 -3.745267984633927e-15 2.115352505559648e-02 -1.257674520083185e-15
-1.721217230290129e-02 -2.581587334105572e-02 -1.157395442453822e-02 -5.095750210681871e-16 4.270153961016816e-02 2.120699449381647e-16
2.791729539180426e-02 3.426509892772281e-02 7.078685594837525e-02 1.043061875520301e-01 7.934529677580973e-02 8.335057328771597e-03
2.251121643897380e-02 2.241964366851154e-02 3.367300390090258e-02 8.218857312829791e-02 7.816034521639068e-02 3.923693141616178e-03
3.253496021352499e-01 6.029375905745888e-01 1.086746724489065e+00 8.044937948590489e-02 6.800392390676137e-02 2.707954543518545e-02
4.351604927165946e-01 7.630347361699606e-01 1.363293179666311e+00 8.964984172071702e-02 6.026318600645174e-02 3.351152158700108e-02
5.989473290719420e-02 7.068592658330915e-02 1.012578579593696e-01 -7.407269242420966e-16 3.686469993594851e-02 3.592774949073840e-16
3.024842124004797e-02 3.135435236920855e-02 4.085747186911051e-02 -1.040834085586084e-16 4.237506770991616e-02 1.387101154423642e-16
3.140882137265409e-01 5.944438626510550e-01 1.071779226561120e+00 2.990663272584015e-15 3.594558202707561e-02 2.680147770384167e-16
4.310200414792247e-01 7.653749282089767e-01 1.350295556625989e+00 -1.419003803349028e-15 2.263554493194437e-02 -2.914335439641036e-16
2.251121643897380e-02 2.241964366851154e-02 3.367300390090258e-02 8.218857312829791e-02 7.816034521639068e-02 3.923693141616178e-03
-3.844527180831947e-03 -1.855783444627196e-03 -5.642406693501967e-03 6.175714475986369e-02 7.718173803403394e-02 1.336246746415116e-03
2.510233272868140e-01 4.689834671772504e-01 8.290472213874072e-01 6.208479736443531e-02 6.853843195039330e-02 2.660182552614775e-02
3.253496021352499e-01 6.029375905745888e-01 1.086746724489065e+00 8.044937948590489e-02 6.800392390676137e-02 2.707954543518545e-02
3.024842124004797e-02 3.135435236920855e-02 4.085747186911051e-02 -1.040834085586084e-16 4.237506770991616e-02 1.387101154423642e-16
1.045182130208086e-02 9.359794067518933e-03 1.292607513375669e-02 1.399921845113283e-15 4.420661289415397e-02 -2.484178227707412e-17
2.498388009506805e-01 4.656836248672483e-01 8.298793004971307e-01 -3.004541060391830e-15 3.985706060392655e-02 -3.061786935099065e-16
3.140882137265409e-01 5.944438626510550e-01 1.071779226561120e+00 2.990663272584015e-15 3.594558202707561e-02 2.680147770384167e-16
-3.844527180831947e-03 -1.855783444627196e-03 -5.642406693501967e-03 6.175714475986369e-02 7.718173803403394e-02 1.336246746415116e-03
4.342906137456082e-03 1.027844895717196e-02 -6.591213355480033e-03 4.126548880340136e-02 7.605878902101576e-02 -3.575758648590140e-03
1.916715436801166e-01 3.514568797628677e-01 5.933517502660298e-01 4.180545344198643e-02 6.432578808319450e-02 2.064577167497404e-02
2.510233272868140e-01 4.689834671772504e-01 8.290472213874072e-01 6.208479736443531e-02 6.853843195039330e-02 2.660182552614775e-02
1.045182130208086e-02 9.359794067518933e-03 1.292607513375669e-02 1.399921845113283e-15 4.420661289415397e-02 -2.484178227707412e-17
1.656420940741333e-02 1.077474519986139e-02 1.837353888090810e-02 -1.267215499201058e-15 4.760860767703730e-02 -4.805184028455756e-16
1.745687764523057e-01 3.236820038916411e-01 5.854958610793215e-01 4.510281037539698e-17 3.990878637802450e-02 2.862293735361732e-16
2.498388009506805e-01 4.656836248672483e-01 8.298793004971307e-01 -3.004541060391830e-15 3.985706060392655e-02 -3.061786935099065e-16
4.342906137456082e-03 1.027844895717196e-02 -6.591213355480033e-03 4.126548880340136e-02 7.605878902101576e-02 -3.575758648590140e-03
7.985284024644768e-02 8.418106873692791e-02 8.064787964195883e-02 2.270016992284827e-02 7.927660357170208e-02 4.735390746521058e-03
3.390144522872578e-01 4.494605269143809e-01 6.078452083654959e-01 2.249783328808921e-02 1.037173706096371e-01 3.291774322944328e-02
1.916715436801166e-01 3.514568797628677e-01 5.933517502660298e-01 4.180545344198643e-02 6.432578808319450e-02 2.064577167497404e-02
1.656420940741333e-02 1.077474519986139e-02 1.837353888090810e-02 -1.267215499201058e-15 4.760860767703730e-02 -4.805184028455756e-16
-1.721217230290129e-02 -2.581587334105572e-02 -1.157395442453822e-02 -5.095750210681871e-16 4.270153961016816e-02 2.120699449381647e-16
8.397287426328531e-02 1.809084562125008e-01 3.450606581840958e-01 -4.354155924701786e-15 4.928450601098828e-02 -2.862293735361732e-16
1.745687764523057e-01 3.236820038916411e-01 5.854958610793215e-01 4.510281037539698e-17 3.990878637802450e-02 2.862293735361732e-16
7.985284024644768e-02 8.418106873692791e-02 8.064787964195883e-02 2.270016992284827e-02 7.927660357170208e-02 4.735390746521058e-03
-3.289265560711239e-01 -5.192256492693552e-01 -3.850452401570139e-01 2.460858671029278e-02 6.017199143401501e-02 2.668185859808121e-02
8.212785335177530e-02 -1.217288830500883e-01 1.800006141275216e-01 6.281725019736147e-02 1.223804173754827e-01 6.922663970845466e-02
3.390144522872578e-01 4.494605269143809e-01 6.078452083654959e-01 2.249783328808921e-02 1.037173706096371e-01 3.291774322944328e-02
-1.721217230290129e-02 -2.581587334105572e-02 -1.157395442453822e-02 -5.095750210681871e-16 4.270153961016816e-02 2.120699449381647e-16
9.439956730695753e-02 -5.261678278491087e-02 3.027531706288561e-02 -3.745267984633927e-15 2.115352505559648e-02 -1.257674520083185e-15
5.933472988841005e-01 4.610257107002614e-01 6.622865319028419e-01 -1.103284130721249e-15 4.469956721661709e-02 5.364632349458276e-16
8.397287426328531e-02 1.809084562125008e-01 3.450606581840958e-01 -4.354155924701786e-15 4.928450601098828e-02 -2.862293735361732e-16
-4.358623473005399e-01 -8.193521743559290e-01 -1.432998826320391e+00 -3.920475055707584e-16 3.893733961575658e-02 -4.917941054394248e-16
-3.290495369790687e-01 -6.196854191851666e-01 -1.097835828074721e+00 -1.623701173514291e-15 3.748587028409607e-02 -1.647987302177967e-17
3.024842124004797e-02 3.135435236920855e-02 4.085747186911051e-02 -1.040834085586084e-16 4.237506770991616e-02 1.387101154423642e-16
5.989473290719420e-02 7.068592658330915e-02 1.012578579593696e-01 -7.407269242420966e-16 3.686469993594851e-02 3.592774949073840e-16
-5.012938308937576e-01 -8.860635177643482e-01 -1.502603073731173e+00 -1.174044094123680e-01 8.397861854594309e-02 3.478853965614970e-02
-3.725749043110682e-01 -6.628381338312401e-01 -1.145360962036980e+00 -8.549792335623599e-02 7.595854834714974e-02 3.213019039134170e-02
2.251121643897791e-02 2.241964366851618e-02 3.367300390090733e-02 -8.218857312829803e-02 7.816034521639172e-02 -3.923693141615269e-03
2.791729539182342e-02 3.426509892774371e-02 7.078685594839423e-02 -1.043061875520304e-01 7.934529677581037e-02 -8.335057328771461e-03
-3.290495369790687e-01 -6.196854191851666e-01 -1.097835828074721e+00 -1.623701173514291e-15 3.748587028409607e-02 -1.647987302177967e-17
-2.274703005057040e-01 -4.399579365253833e-01 -7.908959659728725e-01 4.458239333260394e-16 3.746076511045233e-02 8.274630980409370e-16
1.045182130208086e-02 9.359794067518933e-03 1.292607513375669e-02 1.399921845113283e-15 4.420661289415397e-02 -2.484178227707412e-17
3.024842124004797e-02 3.135435236920855e-02 4.085747186911051e-02 -1.040834085586084e-16 4.237506770991616e-02 1.387101154423642e-16
-3.725749043110682e-01 -6.628381338312401e-01 -1.145360962036980e+00 -8.549792335623599e-02 7.595854834714974e-02 3.213019039134170e-02
-2.613633713609160e-01 -4.698047814129201e-01 -8.316596853670291e-01 -6.239494715219712e-02 7.447101494289603e-02 3.106075185605192e-02
-3.844527180832447e-03 -1.855783444625114e-03 -5.642406693499025e-03 -6.175714475986227e-02 7.718173803403286e-02 -1.336246746414772e-03
2.251121643897791e-02 2.241964366851618e-02 3.367300390090733e-02 -8.218857312829803e-02 7.816034521639172e-02 -3.923693141615269e-03
-2.274703005057040e-01 -4.399579365253833e-01 -7.908959659728725e-01 4.458239333260394e-16 3.746076511045233e-02 8.274630980409370e-16
-1.817265251951061e-01 -3.189146052083889e-01 -5.434253068358694e-01 -1.637578961322106e-15 4.257519899102551e-02 6.956241138666996e-16
1.656420940741333e-02 1.077474519986139e-02 1.837353888090810e-02 -1.267215499201058e-15 4.760860767703730e-02 -4.805184028455756e-16
1.045182130208086e-02 9.359794067518933e-03 1.292607513375669e-02 1.399921845113283e-15 4.420661289415397e-02 -2.484178227707412e-17
-2.613633713609160e-01 -4.698047814129201e-01 -8.316596853670291e-01 -6.239494715219712e-02 7.447101494289603e-02 3.106075185605192e-02
-1.810270493552667e-01 -3.054372239574298e-01 -5.554454467538344e-01 -4.177842254867861e-02 7.428655090073220e-02 3.059611715924849e-02
4.342906137450447e-03 1.027844895716651e-02 -6.591213355486347e-03 -4.126548880340292e-02 7.605878902101404e-02 3.575758648588708e-03
-3.844527180832447e-03 -1.855783444625114e-03 -5.642406693499025e-03 -6.175714475986227e-02 7.718173803403286e-02 -1.336246746414772e-03
-1.817265251951061e-01 -3.189146052083889e-01 -5.434253068358694e-01 -1.637578961322106e-15 4.257519899102551e-02 6.956241138666996e-16
-1.515281577612527e-01 -2.394595029699701e-01 -3.494928366313240e-01 1.382574610353515e-15 3.411321937489700e-02 -7.573694275897491e-16
-1.721217230290129e-02 -2.581587334105572e-02 -1.157395442453822e-02 -5.095750210681871e-16 4.270153961016816e-02 2.120699449381647e-16
1.656420940741333e-02 1.077474519986139e-02 1.837353888090810e-02 -1.267215499201058e-15 4.760860767703730e-02 -4.805184028455756e-16
-1.810270493552667e-01 -3.054372239574298e-01 -5.554454467538344e-01 -4.177842254867861e-02 7.428655090073220e-02 3.059611715924849e-02
-1.482144817732628e-01 -2.237924606026053e-01 -3.582563873570411e-01 -2.232394340831743e-02 6.643023606322102e-02 1.462400499769203e-02
7.985284024641384e-02 8.418106873688630e-02 8.064787964192258e-02 -2.270016992283914e-02 7.927660357170223e-02 -4.735390746519858e-03
4.342906137450447e-03 1.027844895716651e-02 -6.591213355486347e-03 -4.126548880340292e-02 7.605878902101404e-02 3.575758648588708e-03
-1.515281577612527e-01 -2.394595029699701e-01 -3.494928366313240e-01 1.382574610353515e-15 3.411321937489700e-02 -7.573694275897491e-16
-2.691805175286284e-01 -4.211272720162573e-01 -4.347452023231564e-01 2.898722928357245e-15 8.545789613947129e-03 7.676151381197371e-17
9.439956730695753e-02 -5.261678278491087e-02 3.027531706288561e-02 -3.745267984633927e-15 2.115352505559648e-02 -1.257674520083185e-15
-1.721217230290129e-02 -2.581587334105572e-02 -1.157395442453822e-02 -5.095750210681871e-16 4.270153961016816e-02 2.120699449381647e-16
-1.482144817732628e-01 -2.237924606026053e-01 -3.582563873570411e-01 -2.232394340831743e-02 6.643023606322102e-02 1.462400499769203e-02
-5.486250104675970e-01 -7.156021029499168e-01 -7.224463983456773e-01 -1.465232833488064e-02 3.773284047285348e-02 -8.159147500641463e-05
-3.289265560709743e-01 -5.192256492691861e-01 -3.850452401568560e-01 -2.460858671028537e-02 6.017199143401802e-02 -2.668185859808048e-02
7.985284024641384e-02 8.418106873688630e-02 8.064787964192258e-02 -2.270016992283914e-02 7.927660357170223e-02 -4.735390746519858e-03
5.989473290719420e-02 7.068592658330915e-02 1.012578579593696e-01 -7.407269242420966e-16 3.686469993594851e-02 3.592774949073840e-16
3.024842124004797e-02 3.135435236920855e-02 4.085747186911051e-02 -1.040834085586084e-16 4.237506770991616e-02 1.387101154423642e-16
3.140882137265409e-01 5.944438626510550e-01 1.071779226561120e+00 2.990663272584015e-15 3.594558202707561e-02 2.680147770384167e-16
4.310200414792247e-01 7.653749282089767e-01 1.350295556625989e+00 -1.419003803349028e-15 2.263554493194437e-02 -2.914335439641036e-16
2.791729539182342e-02 3.426509892774371e-02 7.078685594839423e-02 -1.043061875520304e-01 7.934529677581037e-02 -8.335057328771461e-03
2.251121643897791e-02 2.241964366851618e-02 3.367300390090733e-02 -8.218857312829803e-02 7.816034521639172e-02 -3.923693141615269e-03
3.253496021352935e-01 6.029375905746333e-01 1.086746724489109e+00 -8.044937948591205e-02 6.800392390676299e-02 -2.707954543518559e-02
4.351604927166018e-01 7.630347361699678e-01 1.363293179666316e+00 -8.964984172071189e-02 6.026318600645195e-02 -3.351152158700144e-02
3.024842124004797e-02 3.135435236920855e-02 4.085747186911051e-02 -1.040834085586084e-16 4.237506770991616e-02 1.387101154423642e-16
1.045182130208086e-02 9.359794067518933e-03 1.292607513375669e-02 1.399921845113283e-15 4.420661289415397e-02 -2.484178227707412e-17
2.498388009506805e-01 4.656836248672483e-01 8.298793004971307e-01 -3.004541060391830e-15 3.985706060392655e-02 -3.061786935099065e-16
3.140882137265409e-01 5.944438626510550e-01 1.071779226561120e+00 2.990663272584015e-15 3.594558202707561e-02 2.680147770384167e-16
2.251121643897791e-02 2.241964366851618e-02 3.367300390090733e-02 -8.218857312829803e-02 7.816034521639172e-02 -3.923693141615269e-03
-3.844527180832447e-03 -1.855783444625114e-03 -5.642406693499025e-03 -6.175714475986227e-02 7.718173803403286e-02 -1.336246746414772e-03
2.510233272867830e-01 4.689834671772136e-01 8.290472213873785e-01 -6.208479736442468e-02 6.853843195039093e-02 -2.660182552614818e-02
3.253496021352935e-01 6.029375905746333e-01 1.086746724489109e+00 -8.044937948591205e-02 6.800392390676299e-02 -2.707954543518559e-02
1.045182130208086e-02 9.359794067518933e-03 1.292607513375669e-02 1.399921845113283e-15 4.420661289415397e-02 -2.484178227707412e-17
1.656420940741333e-02 1.077474519986139e-02 1.837353888090810e-02 -1.267215499201058e-15 4.760860767703730e-02 -4.805184028455756e-16
1.745687764523057e-01 3.236820038916411e-01 5.854958610793215e-01 4.510281037539698e-17 3.990878637802450e-02 2.862293735361732e-16
2.498388009506805e-01 4.656836248672483e-01 8.298793004971307e-01 -3.004541060391830e-15 3.985706060392655e-02 -3.061786935099065e-16
-3.844527180832447e-03 -1.855783444625114e-03 -5.642406693499025e-03 -6.175714475986227e-02 7.718173803403286e-02 -1.336246746414772e-03
4.342906137450447e-03 1.027844895716651e-02 -6.591213355486347e-03 -4.126548880340292e-02 7.605878902101404e-02 3.575758648588708e-03
1.916715436800294e-01 3.514568797627783e-01 5.933517502659460e-01 -4.180545344198258e-02 6.432578808319489e-02 -2.064577167497554e-02
2.510233272867830e-01 4.689834671772136e-01 8.290472213873785e-01 -6.208479736442468e-02 6.853843195039093e-02 -2.660182552614818e-02
1.656420940741333e-02 1.077474519986139e-02 1.837353888090810e-02 -1.267215499201058e-15 4.760860767703730e-02 -4.805184028455756e-16
-1.721217230290129e-02 -2.581587334105572e-02 -1.157395442453822e-02 -5.095750210681871e-16 4.270153961016816e-02 2.120699449381647e-16
8.397287426328531e-02 1.809084562125008e-01 3.450606581840958e-01 -4.354155924701786e-15 4.928450601098828e-02 -2.862293735361732e-16
1.745687764523057e-01 3.236820038916411e-01 5.854958610793215e-01 4.510281037539698e-17 3.990878637802450e-02 2.862293735361732e-16
4.342906137450447e-03 1.027844895716651e-02 -6.591213355486347e-03 -4.126548880340292e-02 7.605878902101404e-02 3.575758648588708e-03
7.985284024641384e-02 8.418106873688630e-02 8.064787964192258e-02 -2.270016992283914e-02 7.927660357170223e-02 -4.735390746519858e-03
3.390144522871464e-01 4.494605269142588e-01 6.078452083653778e-01 -2.249783328809245e-02 1.037173706096360e-01 -3.291774322944382e-02
1.916715436800294e-01 3.514568797627783e-01 5.933517502659460e-01 -4.180545344198258e-02 6.432578808319489e-02 -2.064577167497554e-02
-1.721217230290129e-02 -2.581587334105572e-02 -1.157395442453822e-02 -5.095750210681871e-16 4.270153961016816e-02 2.120699449381647e-16
9.439956730695753e-02 -5.261678278491087e-02 3.027531706288561e-02 -3.745267984633927e-15 2.115352505559648e-02 -1.257674520083185e-15
5.933472988841005e-01 4.610257107002614e-01 6.622865319028419e-01 -1.103284130721249e-15 4.469956721661709e-02 5.364632349458276e-16
8.397287426328531e-02 1.809084562125008e-01 3.450606581840958e-01 -4.354155924701786e-15 4.928450601098828e-02 -2.862293735361732e-16
7.985284024641384e-02 8.418106873688630e-02 8.064787964192258e-02 -2.270016992283914e-02 7.927660357170223e-02 -4.735390746519858e-03
-3.289265560709743e-01 -5.192256492691861e-01 -3.850452401568560e-01 -2.460858671028537e-02 6.017199143401802e-02 -2.668185859808048e-02
8.212785335203862e-02 -1.217288830498075e-01 1.800006141277742e-01 -6.281725019737049e-02 1.223804173754822e-01 -6.922663970845211e-02
3.390144522871464e-01 4.494605269142588e-01 6.078452083653778e-01 -2.249783328809245e-02 1.037173706096360e-01 -3.291774322944382e-02
        </DataArray>
        <DataArray type="Float64" Name="plastic_strain" NumberOfComponents="6" format="ascii">
0.000000000000000e+00 0.000000000000000e+00 0.000000000000000e+00 0.000000000000000e+00 0.000000000000000e+00 0.000000000000000e+00
0.000000000000000e+00 0.000000000000000e+00 0.000000000000000e+00 0.000000000000000e+00 0.000000000000000e+00 0.000000000000000e+00
0.000000000000000e+00 0.000000000000000e+00 0.000000000000000e+00 0.000000000000000e+00 0.000000000000000e+00 0.000000000000000e+00
2.176180895580066e-04 1.912233602826087e-05 -3.940505198041152e-04 -1.439528220911567e-04 1.903882402747536e-05 -5.551284254867708e-05
0.000000000000000e+00 0.000000000000000e+00 0.000000000000000e+00 0.000000000000000e+00 0.000000000000000e+00 0.000000000000000e+00
0.000000000000000e+00 0.000000000000000e+00 0.000000000000000e+00 0.000000000000000e+00 0.000000000000000e+00 0.000000000000000e+00
0.000000000000000e+00 0.000000000000000e+00 0.000000000000000e+00 0.000000000000000e+00 0.000000000000000e+00 0.000000000000000e+00
2.306821620148880e-04 1.457364071060610e-05 -4.122998828806881e-04 1.924458856161770e-18 8.810363001442449e-05 -5.183841637196318e-19
0.000000000000000e+00 0.000000000000000e+00 0.000000000000000e+00 0.000000000000000e+00 0.000000000000000e+00 0.000000000000000e+00
0.000000000000000e+00 0.000000000000000e+00 0.000000000000000e+00 0.000000000000000e+00 0.000000000000000e+00 0.000000000000000e+00
0.000000000000000e+00 0.000000000000000e+00 0.000000000000000e+00 0.000000000000000e+00 0.000000000000000e+00 0.000000000000000e+00
0.000000000000000e+00 0.000000000000000e+00 0.000000000000000e+00 0.000000000000000e+00 0.000000000000000e+00 0.000000000000000e+00
0.000000000000000e+00 0.000000000000000e+00 0.000000000000000e+00 0.000000000000000e+00 0.000000000000000e+00 0.000000000000000e+00
0.000000000000000e+00 0.000000000000000e+00 0.000000000000000e+00 0.000000000000000e+00 0.000000000000000e+00 0.000000000000000e+00
0.000000000000000e+00 0.000000000000000e+00 0.000000000000000e+00 0.000000000000000e+00 0.000000000000000e+00 0.000000000000000e+00
0.000000000000000e+00 0.000000000000000e+00 0.000000000000000e+00 0.000000000000000e+00 0.000000000000000e+00 0.000000000000000e+00
0.000000000000000e+00 0.000000000000000e+00 0.000000000000000e+00 0.000000000000000e+00 0.000000000000000e+00 0.000000000000000e+00
0.000000000000000e+00 0.000000000000000e+00 0.000000000000000e+00 0.000000000000000e+00 0.000000000000000e+00 0.000000000000000e+00
0.000000000000000e+00 0.000000000000000e+00 0.000000000000000e+00 0.000000000000000e+00 0.000000000000000e+00 0.000000000000000e+00
0.000000000000000e+00 0.000000000000000e+00 0.000000000000000e+00 0.000000000000000e+00 0.000000000000000e+00 0.000000000000000e+00
0.000000000000000e+00 0.000000000000000e+00 0.000000000000000e+00 0.000000000000000e+00 0.000000000000000e+00 0.000000000000000e+00
0.000000000000000e+00 0.000000000000000e+00 0.000000000000000e+00 0.000000000000000e+00 0.000000000000000e+00 0.000000000000000e+00
0.000000000000000e+00 0.000000000000000e+00 0.000000000000000e+00 0.000000000000000e+00 0.000000000000000e+00 0.000000000000000e+00
0.000000000000000e+00 0.000000000000000e+00 0.000000000000000e+00 0.000000000000000e+00 0.000000000000000e+00 0.000000000000000e+00
0.000000000000000e+00 0.000000000000000e+00 0.000000000000000e+00 0.000000000000000e+00 0.000000000000000e+00 0.000000000000000e+00
0.000000000000000e+00 0.000000000000000e+00 0.000000000000000e+00 0.000000000000000e+00 0.000000000000000e+00 0.000000000000000e+00
0.000000000000000e+00 0.000000000000000e+00 0.000000000000000e+00 0.000000000000000e+00 0.000000000000000e+00 0.000000000000000e+00
0.000000000000000e+00 0.000000000000000e+00 0.000000000000000e+00 0.000000000000000e+00 0.000000000000000e+00 0.000000000000000e+00
0.000000000000000e+00 0.000000000000000e+00 0.000000000000000e+00 0.000000000000000e+00 0.000000000000000e+00 0.000000000000000e+00
0.000000000000000e+00 0.000000000000000e+00 0.000000000000000e+00 0.000000000000000e+00 0.000000000000000e+00 0.000000000000000e+00
0.000000000000000e+00 0.000000000000000e+00 0.000000000000000e+00 0.000000000000000e+00 0.000000000000000e+00 0.000000000000000e+00
0.000000000000000e+00 0.000000000000000e+00 0.000000000000000e+00 0.000000000000000e+00 0.000000000000000e+00 0.000000000000000e+00
0.000000000000000e+00 0.000000000000000e+00 0.000000000000000e+00 0.000000000000000e+00 0.000000000000000e+00 0.000000000000000e+00
0.000000000000000e+00 0.000000000000000e+00 0.000000000000000e+00 0.000000000000000e+00 0.000000000000000e+00 0.000000000000000e+00
0.000000000000000e+00 0.000000000000000e+00 0.000000000000000e+00 0.000000000000000e+00 0.000000000000000e+00 0.000000000000000e+00
0.000000000000000e+00 0.000000000000000e+00 0.000000000000000e+00 0.000000000000000e+00 0.000000000000000e+00 0.000000000000000e+00
0.000000000000000e+00 0.000000000000000e+00 0.000000000000000e+00 0.000000000000000e+00 0.000000000000000e+00 0.000000000000000e+00
0.000000000000000e+00 0.000000000000000e+00 0.000000000000000e+00 0.000000000000000e+00 0.000000000000000e+00 0.000000000000000e+00
0.000000000000000e+00 0.000000000000000e+00 0.000000000000000e+00 0.000000000000000e+00 0.000000000000000e+00 0.000000000000000e+00
0.000000000000000e+00 0.000000000000000e+00 0.000000000000000e+00 0.000000000000000e+00 0.000000000000000e+00 0.000000000000000e+00
2.176180895580066e-04 1.912233602826087e-05 -3.940505198041152e-04 -1.439528220911567e-04 1.903882402747536e-05 -5.551284254867708e-05
0.000000000000000e+00 0.000000000000000e+00 0.000000000000000e+00 0.000000000000000e+00 0.000000000000000e+00 0.000000000000000e+00
0.000000000000000e+00 0.000000000000000e+00 0.000000000000000e+00 0.000000000000000e+00 0.000000000000000e+00 0.000000000000000e+00
-1.624323533753110e-03 -1.427310592337488e-04 2.941233121315768e-03 1.074478491874241e-03 -1.421077171738023e-04 4.143534977284686e-04
2.306821620148880e-04 1.457364071060610e-05 -4.122998828806881e-04 1.924458856161770e-18 8.810363001442449e-05 -5.183841637196318e-19
0.000000000000000e+00 0.000000000000000e+00 0.000000000000000e+00 0.000000000000000e+00 0.000000000000000e+00 0.000000000000000e+00
0.000000000000000e+00 0.000000000000000e+00 0.000000000000000e+00 0.000000000000000e+00 0.000000000000000e+00 0.000000000000000e+00
-1.721835098078795e-03 -1.087791351664723e-04 3.077448221730852e-03 -1.441988889405721e-17 -6.576144470901652e-04 3.876022766635678e-18
0.000000000000000e+00 0.000000000000000e+00 0.000000000000000e+00 0.000000000000000e+00 0.000000000000000e+00 0.000000000000000e+00
0.000000000000000e+00 0.000000000000000e+00 0.000000000000000e+00 0.000000000000000e+00 0.000000000000000e+00 0.000000000000000e+00
0.000000000000000e+00 0.000000000000000e+00 0.000000000000000e+00 0.000000000000000e+00 0.000000000000000e+00 0.000000000000000e+00
0.000000000000000e+00 0.000000000000000e+00 0.000000000000000e+00 0.000000000000000e+00 0.000000000000000e+00 0.000000000000000e+00
0.000000000000000e+00 0.000000000000000e+00 0.000000000000000e+00 0.000000000000000e+00 0.000000000000000e+00 0.000000000000000e+00
0.000000000000000e+00 0.000000000000000e+00 0.000000000000000e+00 0.000000000000000e+00 0.000000000000000e+00 0.000000000000000e+00
0.000000000000000e+00 0.000000000000000e+00 0.000000000000000e+00 0.000000000000000e+00 0.000000000000000e+00 0.000000000000000e+00
0.000000000000000e+00 0.000000000000000e+00 0.000000000000000e+00 0.000000000000000e+00 0.000000000000000e+00 0.000000000000000e+00
0.000000000000000e+00 0.000000000000000e+00 0.000000000000000e+00 0.000000000000000e+00 0.000000000000000e+00 0.000000000000000e+00
0.000000000000000e+00 0.000000000000000e+00 0.000000000000000e+00 0.000000000000000e+00 0.000000000000000e+00 0.000000000000000e+00
0.000000000000000e+00 0.000000000000000e+00 0.000000000000000e+00 0.000000000000000e+00 0.000000000000000e+00 0.000000000000000e+00
0.000000000000000e+00 0.000000000000000e+00 0.000000000000000e+00 0.000000000000000e+00 0.000000000000000e+00 0.000000000000000e+00
0.000000000000000e+00 0.000000000000000e+00 0.000000000000000e+00 0.000000000000000e+00 0.000000000000000e+00 0.000000000000000e+00
0.000000000000000e+00 0.000000000000000e+00 0.000000000000000e+00 0.000000000000000e+00 0.000000000000000e+00 0.000000000000000e+00
0.000000000000000e+00 0.000000000000000e+00 0.000000000000000e+00 0.000000000000000e+00 0.000000000000000e+00 0.000000000000000e+00
0.000000000000000e+00 0.000000000000000e+00 0.000000000000000e+00 0.000000000000000e+00 0.000000000000000e+00 0.000000000000000e+00
0.000000000000000e+00 0.000000000000000e+00 0.000000000000000e+00 0.000000000000000e+00 0.000000000000000e+00 0.000000000000000e+00
0.000000000000000e+00 0.000000000000000e+00 0.000000000000000e+00 0.000000000000000e+00 0.000000000000000e+00 0.000000000000000e+00
0.000000000000000e+00 0.000000000000000e+00 0.000000000000000e+00 0.000000000000000e+00 0.000000000000000e+00 0.000000000000000e+00
0.000000000000000e+00 0.000000000000000e+00 0.000000000000000e+00 0.000000000000000e+00 0.000000000000000e+00 0.000000000000000e+00
0.000000000000000e+00 0.000000000000000e+00 0.000000000000000e+00 0.000000000000000e+00 0.000000000000000e+00 0.000000000000000e+00
0.000000000000000e+00 0.000000000000000e+00 0.000000000000000e+00 0.000000000000000e+00 0.000000000000000e+00 0.000000000000000e+00
0.000000000000000e+00 0.000000000000000e+00 0.000000000000000e+00 0.000000000000000e+00 0.000000000000000e+00 0.000000000000000e+00
0.000000000000000e+00 0.000000000000000e+00 0.000000000000000e+00 0.000000000000000e+00 0.000000000000000e+00 0.000000000000000e+00
0.000000000000000e+00 0.000000000000000e+00 0.000000000000000e+00 0.000000000000000e+00 0.000000000000000e+00 0.000000000000000e+00
0.000000000000000e+00 0.000000000000000e+00 0.000000000000000e+00 0.000000000000000e+00 0.000000000000000e+00 0.000000000000000e+00
0.000000000000000e+00 0.000000000000000e+00 0.000000000000000e+00 0.000000000000000e+00 0.000000000000000e+00 0.000000000000000e+00
0.000000000000000e+00 0.000000000000000e+00 0.000000000000000e+00 0.000000000000000e+00 0.000000000000000e+00 0.000000000000000e+00
0.000000000000000e+00 0.000000000000000e+00 0.000000000000000e+00 0.000000000000000e+00 0.000000000000000e+00 0.000000000000000e+00
0.000000000000000e+00 0.000000000000000e+00 0.000000000000000e+00 0.000000000000000e+00 0.000000000000000e+00 0.000000000000000e+00
0.000000000000000e+00 0.000000000000000e+00 0.000000000000000e+00 0.000000000000000e+00 0.000000000000000e+00 0.000000000000000e+00
0.000000000000000e+00 0.000000000000000e+00 0.000000000000000e+00 0.000000000000000e+00 0.000000000000000e+00 0.000000000000000e+00
0.000000000000000e+00 0.000000000000000e+00 0.000000000000000e+00 0.000000000000000e+00 0.000000000000000e+00 0.000000000000000e+00
0.000000000000000e+00 0.000000000000000e+00 0.000000000000000e+00 0.000000000000000e+00 0.000000000000000e+00 0.000000000000000e+00
0.000000000000000e+00 0.000000000000000e+00 0.000000000000000e+00 0.000000000000000e+00 0.000000000000000e+00 0.000000000000000e+00
2.306821620148880e-04 1.457364071060610e-05 -4.122998828806881e-04 1.924458856161770e-18 8.810363001442449e-05 -5.183841637196318e-19
0.000000000000000e+00 0.000000000000000e+00 0.000000000000000e+00 0.000000000000000e+00 0.000000000000000e+00 0.000000000000000e+00
0.000000000000000e+00 0.000000000000000e+00 0.000000000000000e+00 0.000000000000000e+00 0.000000000000000e+00 0.000000000000000e+00
0.000000000000000e+00 0.000000000000000e+00 0.000000000000000e+00 0.000000000000000e+00 0.000000000000000e+00 0.000000000000000e+00
2.176180895580181e-04 1.912233602826137e-05 -3.940505198041333e-04 1.439528220911564e-04 1.903882402747798e-05 5.551284254868023e-05
0.000000000000000e+00 0.000000000000000e+00 0.000000000000000e+00 0.000000000000000e+00 0.000000000000000e+00 0.000000000000000e+00
0.000000000000000e+00 0.000000000000000e+00 0.000000000000000e+00 0.000000000000000e+00 0.000000000000000e+00 0.000000000000000e+00
0.000000000000000e+00 0.000000000000000e+00 0.000000000000000e+00 0.000000000000000e+00 0.000000000000000e+00 0.000000000000000e+00
0.000000000000000e+00 0.000000000000000e+00 0.000000000000000e+00 0.000000000000000e+00 0.000000000000000e+00 0.000000000000000e+00
0.000000000000000e+00 0.000000000000000e+00 0.000000000000000e+00 0.000000000000000e+00 0.000000000000000e+00 0.000000000000000e+00
0.000000000000000e+00 0.000000000000000e+00 0.000000000000000e+00 0.000000000000000e+00 0.000000000000000e+00 0.000000000000000e+00
0.000000000000000e+00 0.000000000000000e+00 0.000000000000000e+00 0.000000000000000e+00 0.000000000000000e+00 0.000000000000000e+00
0.000000000000000e+00 0.000000000000000e+00 0.000000000000000e+00 0.000000000000000e+00 0.000000000000000e+00 0.000000000000000e+00
0.000000000000000e+00 0.000000000000000e+00 0.000000000000000e+00 0.000000000000000e+00 0.000000000000000e+00 0.000000000000000e+00
0.000000000000000e+00 0.000000000000000e+00 0.000000000000000e+00 0.000000000000000e+00 0.000000000000000e+00 0.000000000000000e+00
0.000000000000000e+00 0.000000000000000e+00 0.000000000000000e+00 0.000000000000000e+00 0.000000000000000e+00 0.000000000000000e+00
0.000000000000000e+00 0.000000000000000e+00 0.000000000000000e+00 0.000000000000000e+00 0.000000000000000e+00 0.000000000000000e+00
0.000000000000000e+00 0.000000000000000e+00 0.000000000000000e+00 0.000000000000000e+00 0.000000000000000e+00 0.000000000000000e+00
0.000000000000000e+00 0.000000000000000e+00 0.000000000000000e+00 0.000000000000000e+00 0.000000000000000e+00 0.000000000000000e+00
0.000000000000000e+00 0.000000000000000e+00 0.000000000000000e+00 0.000000000000000e+00 0.000000000000000e+00 0.000000000000000e+00
0.000000000000000e+00 0.000000000000000e+00 0.000000000000000e+00 0.000000000000000e+00 0.000000000000000e+00 0.000000000000000e+00
0.000000000000000e+00 0.000000000000000e+00 0.000000000000000e+00 0.000000000000000e+00 0.000000000000000e+00 0.000000000000000e+00
0.000000000000000e+00 0.000000000000000e+00 0.000000000000000e+00 0.000000000000000e+00 0.000000000000000e+00 0.000000000000000e+00
0.000000000000000e+00 0.000000000000000e+00 0.000000000000000e+00 0.000000000000000e+00 0.000000000000000e+00 0.000000000000000e+00
0.000000000000000e+00 0.000000000000000e+00 0.000000000000000e+00 0.000000000000000e+00 0.000000000000000e+00 0.000000000000000e+00
0.000000000000000e+00 0.000000000000000e+00 0.000000000000000e+00 0.000000000000000e+00 0.000000000000000e+00 0.000000000000000e+00
0.000000000000000e+00 0.000000000000000e+00 0.000000000000000e+00 0.000000000000000e+00 0.000000000000000e+00 0.000000000000000e+00
0.000000000000000e+00 0.000000000000000e+00 0.000000000000000e+00 0.000000000000000e+00 0.000000000000000e+00 0.000000000000000e+00
0.000000000000000e+00 0.000000000000000e+00 0.000000000000000e+00 0.000000000000000e+00 0.000000000000000e+00 0.000000000000000e+00
0.000000000000000e+00 0.000000000000000e+00 0.000000000000000e+00 0.000000000000000e+00 0.000000000000000e+00 0.000000000000000e+00
0.000000000000000e+00 0.000000000000000e+00 0.000000000000000e+00 0.000000000000000e+00 0.000000000000000e+00 0.000000000000000e+00
0.000000000000000e+00 0.000000000000000e+00 0.000000000000000e+00 0.000000000000000e+00 0.000000000000000e+00 0.000000000000000e+00
0.000000000000000e+00 0.000000000000000e+00 0.000000000000000e+00 0.000000000000000e+00 0.000000000000000e+00 0.000000000000000e+00
0.000000000000000e+00 0.000000000000000e+00 0.000000000000000e+00 0.000000000000000e+00 0.000000000000000e+00 0.000000000000000e+00
0.000000000000000e+00 0.000000000000000e+00 0.000000000000000e+00 0.000000000000000e+00 0.000000000000000e+00 0.000000000000000e+00
0.000000000000000e+00 0.000000000000000e+00 0.000000000000000e+00 0.000000000000000e+00 0.000000000000000e+00 0.000000000000000e+00
0.000000000000000e+00 0.000000000000000e+00 0.000000000000000e+00 0.000000000000000e+00 0.000000000000000e+00 0.000000000000000e+00
2.306821620148880e-04 1.457364071060610e-05 -4.122998828806881e-04 1.924458856161770e-18 8.810363001442449e-05 -5.183841637196318e-19
0.000000000000000e+00 0.000000000000000e+00 0.000000000000000e+00 0.000000000000000e+00 0.000000000000000e+00 0.000000000000000e+00
0.000000000000000e+00 0.000000000000000e+00 0.000000000000000e+00 0.000000000000000e+00 0.000000000000000e+00 0.000000000000000e+00
-1.721835098078795e-03 -1.087791351664723e-04 3.077448221730852e-03 -1.441988889405721e-17 -6.576144470901652e-04 3.876022766635678e-18
2.176180895580181e-04 1.912233602826137e-05 -3.940505198041333e-04 1.439528220911564e-04 1.903882402747798e-05 5.551284254868023e-05
0.000000000000000e+00 0.000000000000000e+00 0.000000000000000e+00 0.000000000000000e+00 0.000000000000000e+00 0.000000000000000e+00
0.000000000000000e+00 0.000000000000000e+00 0.000000000000000e+00 0.000000000000000e+00 0.000000000000000e+00 0.000000000000000e+00
-1.624323533753196e-03 -1.427310592337526e-04 2.941233121315904e-03 -1.074478491874239e-03 -1.421077171738219e-04 -4.143534977284922e-04
0.000000000000000e+00 0.000000000000000e+00 0.000000000000000e+00 0.000000000000000e+00 0.000000000000000e+00 0.000000000000000e+00
0.000000000000000e+00 0.000000000000000e+00 0.000000000000000e+00 0.000000000000000e+00 0.000000000000000e+00 0.000000000000000e+00
0.000000000000000e+00 0.000000000000000e+00 0.000000000000000e+00 0.000000000000000e+00 0.000000000000000e+00 0.000000000000000e+00
0.000000000000000e+00 0.000000000000000e+00 0.000000000000000e+00 0.000000000000000e+00 0.000000000000000e+00 0.000000000000000e+00
0.000000000000000e+00 0.000000000000000e+00 0.000000000000000e+00 0.000000000000000e+00 0.000000000000000e+00 0.000000000000000e+00
0.000000000000000e+00 0.000000000000000e+00 0.000000000000000e+00 0.000000000000000e+00 0.000000000000000e+00 0.000000000000000e+00
0.000000000000000e+00 0.000000000000000e+00 0.000000000000000e+00 0.000000000000000e+00 0.000000000000000e+00 0.000000000000000e+00
0.000000000000000e+00 0.000000000000000e+00 0.000000000000000e+00 0.000000000000000e+00 0.000000000000000e+00 0.000000000000000e+00
0.000000000000000e+00 0.000000000000000e+00 0.000000000000000e+00 0.000000000000000e+00 0.000000000000000e+00 0.000000000000000e+00
0.000000000000000e+00 0.000000000000000e+00 0.000000000000000e+00 0.000000000000000e+00 0.000000000000000e+00 0.000000000000000e+00
0.000000000000000e+00 0.000000000000000e+00 0.000000000000000e+00 0.000000000000000e+00 0.000000000000000e+00 0.000000000000000e+00
0.000000000000000e+00 0.000000000000000e+00 0.000000000000000e+00 0.000000000000000e+00 0.000000000000000e+00 0.000000000000000e+00
0.000000000000000e+00 0.000000000000000e+00 0.000000000000000e+00 0.000000000000000e+00 0.000000000000000e+00 0.000000000000000e+00
0.000000000000000e+00 0.000000000000000e+00 0.000000000000000e+00 0.000000000000000e+00 0.000000000000000e+00 0.000000000000000e+00
0.000000000000000e+00 0.000000000000000e+00 0.000000000000000e+00 0.000000000000000e+00 0.000000000000000e+00 0.000000000000000e+00
0.000000000000000e+00 0.000000000000000e+00 0.000000000000000e+00 0.000000000000000e+00 0.000000000000000e+00 0.000000000000000e+00
0.000000000000000e+00 0.000000000000000e+00 0.000000000000000e+00 0.000000000000000e+00 0.000000000000000e+00 0.000000000000000e+00
0.000000000000000e+00 0.000000000000000e+00 0.000000000000000e+00 0.000000000000000e+00 0.000000000000000e+00 0.000000000000000e+00
0.000000000000000e+00 0.000000000000000e+00 0.000000000000000e+00 0.000000000000000e+00 0.000000000000000e+00 0.000000000000000e+00
0.000000000000000e+00 0.000000000000000e+00 0.000000000000000e+00 0.000000000000000e+00 0.000000000000000e+00 0.000000000000000e+00
0.000000000000000e+00 0.000000000000000e+00 0.000000000000000e+00 0.000000000000000e+00 0.000000000000000e+00 0.000000000000000e+00
0.000000000000000e+00 0.000000000000000e+00 0.000000000000000e+00 0.000000000000000e+00 0.000000000000000e+00 0.000000000000000e+00
0.000000000000000e+00 0.000000000000000e+00 0.000000000000000e+00 0.000000000000000e+00 0.000000000000000e+00 0.000000000000000e+00
0.000000000000000e+00 0.000000000000000e+00 0.000000000000000e+00 0.000000000000000e+00 0.000000000000000e+00 0.000000000000000e+00
0.000000000000000e+00 0.000000000000000e+00 0.000000000000000e+00 0.000000000000000e+00 0.000000000000000e+00 0.000000000000000e+00
0.000000000000000e+00 0.000000000000000e+00 0.000000000000000e+00 0.000000000000000e+00 0.000000000000000e+00 0.000000000000000e+00
0.000000000000000e+00 0.000000000000000e+00 0.000000000000000e+00 0.000000000000000e+00 0.000000000000000e+00 0.000000000000000e+00
0.000000000000000e+00 0.000000000000000e+00 0.000000000000000e+00 0.000000000000000e+00 0.000000000000000e+00 0.000000000000000e+00
0.000000000000000e+00 0.000000000000000e+00 0.000000000000000e+00 0.000000000000000e+00 0.000000000000000e+00 0.000000000000000e+00
0.000000000000000e+00 0.000000000000000e+00 0.000000000000000e+00 0.000000000000000e+00 0.000000000000000e+00 0.000000000000000e+00
0.000000000000000e+00 0.000000000000000e+00 0.000000000000000e+00 0.000000000000000e+00 0.000000000000000e+00 0.000000000000000e+00
0.000000000000000e+00 0.000000000000000e+00 0.000000000000000e+00 0.000000000000000e+00 0.000000000000000e+00 0.000000000000000e+00
        </DataArray>
  </PointData>
  <CellData>
        <DataArray type="Float64" Name="element_GL_strains_xyz" NumberOfComponents="6" format="ascii">
2.789705195705710e-02 7.112470587355278e-03 -3.564770413085737e-02 4.644120670527162e-04 1.149077903455461e-02 -4.531338063595938e-04
2.135103960225651e-02 5.867369881432306e-03 -2.772286693207174e-02 7.033710368223658e-05 1.068205278855331e-02 -5.039984947729026e-04
1.494659606034270e-02 4.523300138555914e-03 -1.981309017145187e-02 -1.752417446176414e-05 1.085688946890648e-02 -9.221724321013169e-04
9.166839397668278e-03 2.439299481495065e-03 -1.185784897541895e-02 -2.220736943093961e-04 1.155559814853224e-02 -1.546071379631607e-03
9.466641281994417e-03 -4.209665557213669e-03 -4.668186208703982e-03 6.989078398361766e-04 9.179332754810388e-03 5.494184543293781e-04
-2.780409319412846e-02 -8.450896057286689e-03 3.679736570655238e-02 -6.149932492562887e-04 9.599220965445106e-03 6.685986778387691e-04
-2.155972306571001e-02 -6.191815372654744e-03 2.821498596715730e-02 -1.279345616671179e-04 1.040794721144674e-02 6.498740374297164e-04
-1.578850912059655e-02 -4.213369586722485e-03 2.030415094845511e-02 -2.799957355660229e-05 1.023311053109379e-02 3.569145659765914e-04
-1.067552303269028e-02 -2.414076825400485e-03 1.322719757135186e-02 -2.146396257058716e-04 9.534401851467849e-03 -7.255653256898731e-04
-2.119115583590068e-04 -1.048222062696959e-02 9.687099864594477e-03 2.487443874299510e-03 1.191066724518954e-02 2.325877525869630e-03
2.789705195705704e-02 7.112470587355306e-03 -3.564770413085734e-02 -4.644120670528815e-04 1.149077903455471e-02 4.531338063595517e-04
2.135103960225646e-02 5.867369881432386e-03 -2.772286693207170e-02 -7.033710368241006e-05 1.068205278855330e-02 5.039984947729435e-04
1.494659606034276e-02 4.523300138556181e-03 -1.981309017145177e-02 1.752417446171904e-05 1.085688946890644e-02 9.221724321014082e-04
9.166839397668424e-03 2.439299481495398e-03 -1.185784897541913e-02 2.220736943098385e-04 1.155559814853211e-02 1.546071379631604e-03
9.466641281994181e-03 -4.209665557213523e-03 -4.668186208703951e-03 -6.989078398359685e-04 9.179332754810305e-03 -5.494184543294416e-04
-2.780409319412842e-02 -8.450896057286713e-03 3.679736570655234e-02 6.149932492563585e-04 9.599220965445243e-03 -6.685986778387329e-04
-2.155972306571005e-02 -6.191815372654896e-03 2.821498596715749e-02 1.279345616672107e-04 1.040794721144663e-02 -6.498740374297159e-04
-1.578850912059671e-02 -4.213369586722644e-03 2.030415094845525e-02 2.799957355672546e-05 1.023311053109363e-02 -3.569145659766616e-04
-1.067552303269019e-02 -2.414076825400652e-03 1.322719757135170e-02 2.146396257058283e-04 9.534401851467811e-03 7.255653256897990e-04
-2.119115583588277e-04 -1.048222062696956e-02 9.687099864594397e-03 -2.487443874299571e-03 1.191066724518966e-02 -2.325877525869572e-03
        </DataArray>
        <DataArray type="Float64" Name="element_cauchy_stresses_xyz" NumberOfComponents="6" format="ascii">
1.367491413494410e-01 -3.687219256652399e-03 -2.926073187040351e-01 3.137919371977812e-03 7.764039888212575e-02 -3.061714907835094e-03
1.033618258220362e-01 -1.257564183532726e-03 -2.282186237342358e-01 4.752507005556508e-04 7.217603235508994e-02 -3.405395234952045e-03
7.316397560610585e-02 2.736300458897833e-03 -1.616987692033169e-01 -1.184065842011091e-04 7.335736127639514e-02 -6.230894811495386e-03
4.152917731487139e-02 -3.927173470082770e-03 -1.005295279086910e-01 -1.500497934522949e-03 7.807836586846108e-02 -1.044642824075410e-02
1.117034829386188e-01 1.929600429532092e-02 1.619789178525124e-02 4.722350269163357e-03 6.202251861358371e-02 3.712286853576879e-03
-1.438890252194709e-01 -1.312417970026969e-02 2.926073187040483e-01 -4.155359792272221e-03 6.485960111787234e-02 4.517558634045737e-03
-1.080969778391855e-01 -4.259763696920220e-03 2.282186237342422e-01 -8.644227139670106e-04 7.032396764491042e-02 4.391040793444029e-03
-8.217055558759208e-02 -3.960153331686241e-03 1.616987692032975e-01 -1.891863078148821e-04 6.914263872360668e-02 2.411584905247239e-03
-6.097534103754840e-02 -5.154758555860567e-03 1.005295279086823e-01 -1.450267741255889e-03 6.442163413153952e-02 -4.902468416823467e-03
-8.308310410248951e-02 -1.524770842958043e-01 -1.619789178523622e-02 1.680705320472642e-02 8.047748138641582e-02 1.571538868830831e-02
1.367491413494401e-01 -3.687219256652691e-03 -2.926073187040354e-01 -3.137919371978927e-03 7.764039888212641e-02 3.061714907834809e-03
1.033618258220419e-01 -1.257564183526141e-03 -2.282186237342295e-01 -4.752507005568226e-04 7.217603235508988e-02 3.405395234952321e-03
7.316397560614077e-02 2.736300458934131e-03 -1.616987692032818e-01 1.184065842008038e-04 7.335736127639489e-02 6.230894811496001e-03
4.152917731489676e-02 -3.927173470056118e-03 -1.005295279086678e-01 1.500497934525937e-03 7.807836586846018e-02 1.044642824075409e-02
1.117034829386124e-01 1.929600429531714e-02 1.619789178524668e-02 -4.722350269161950e-03 6.202251861358315e-02 -3.712286853577308e-03
-1.438890252194736e-01 -1.312417970027287e-02 2.926073187040450e-01 4.155359792272694e-03 6.485960111787327e-02 -4.517558634045493e-03
-1.080969778391866e-01 -4.259763696922049e-03 2.282186237342427e-01 8.644227139676386e-04 7.032396764490965e-02 -4.391040793444026e-03
-8.217055558760773e-02 -3.960153331701882e-03 1.616987692032839e-01 1.891863078157105e-04 6.914263872360560e-02 -2.411584905247714e-03
-6.097534103756733e-02 -5.154758555881236e-03 1.005295279086617e-01 1.450267741255596e-03 6.442163413153927e-02 4.902468416822966e-03
-8.308310410247745e-02 -1.524770842957932e-01 -1.619789178522594e-02 -1.680705320472683e-02 8.047748138641664e-02 -1.571538868830792e-02
        </DataArray>
        <DataArray type="Float64" Name="element_gid" format="ascii">
5.000000000000000e+00
6.000000000000000e+00
7.000000000000000e+00
8.000000000000000e+00
9.000000000000000e+00
1.500000000000000e+01
1.600000000000000e+01
1.700000000000000e+01
1.800000000000000e+01
1.900000000000000e+01
2.500000000000000e+01
2.600000000000000e+01
2.700000000000000e+01
2.800000000000000e+01
2.900000000000000e+01
3.500000000000000e+01
3.600000000000000e+01
3.700000000000000e+01
3.800000000000000e+01
3.900000000000000e+01
        </DataArray>
        <DataArray type="Float64" Name="element_owner" format="ascii">
0.000000000000000e+00
0.000000000000000e+00
0.000000000000000e+00
0.000000000000000e+00
0.000000000000000e+00
0.000000000000000e+00
0.000000000000000e+00
0.000000000000000e+00
0.000000000000000e+00
0.000000000000000e+00
0.000000000000000e+00
0.000000000000000e+00
0.000000000000000e+00
0.000000000000000e+00
0.000000000000000e+00
0.000000000000000e+00
0.000000000000000e+00
0.000000000000000e+00
0.000000000000000e+00
0.000000000000000e+00
        </DataArray>
      </CellData>

    </Piece>
  </UnstructuredGrid>
</VTKFile>
